 vasp.5.4.4.18Apr17-6-g9f103f2a35 (build Sep 02 2021 13:24:58) complex

 executed on             LinuxIFC date 2023.01.15  13:02:12

 INCAR:
 POTCAR:    PAW_PBE C 08Apr2002
 POTCAR:    PAW_PBE N 08Apr2002
 POTCAR:    PAW_PBE C 08Apr2002
 POTCAR:    PAW_PBE Cr_pv 02Aug2007
 POTCAR:    PAW_PBE C 08Apr2002
   VRHFIN =C: s2p2

   TITEL  = PAW_PBE C 08Apr2002
   POMASS =   12.011; ZVAL   =    4.000    mass and valenz
   ENMAX  =  400.000; ENMIN  =  300.000 eV

[...]

   TITEL  = PAW_PBE C 08Apr2002
   POMASS =   12.011; ZVAL   =    4.000    mass and valenz
   ENMAX  =  400.000; ENMIN  =  300.000 eV

   TITEL  = PAW_PBE Cr_pv 02Aug2007
   POMASS =   51.996; ZVAL   =   12.000    mass and valenz
   ENMAX  =  265.681; ENMIN  =  199.261 eV

 Optimization of the real space projectors (new method)

 maximal supplied QI-value         = 25.13
 optimisation between [QCUT,QGAM] = [ 11.81, 23.88] = [ 39.08,159.64] Ry
 Optimized for a Real-space Cutoff    1.18 Angstroem

   l    n(q)    QCUT    max X(q) W(low)/X(q) W(high)/X(q)  e(spline)
   0      8    11.813   115.676    0.10E-03    0.16E-03    0.35E-06
   0      8    11.813    87.132    0.10E-03    0.16E-03    0.35E-06
   1      8    11.813     4.429    0.16E-03    0.13E-04    0.22E-06
   1      8    11.813     2.733    0.13E-03    0.10E-04    0.18E-06
 Optimization of the real space projectors (new method)

[...]

   l    n(q)    QCUT    max X(q) W(low)/X(q) W(high)/X(q)  e(spline)
   0      8    11.813   115.676    0.10E-03    0.16E-03    0.35E-06
   0      8    11.813    87.132    0.10E-03    0.16E-03    0.35E-06
   1      8    11.813     4.429    0.16E-03    0.13E-04    0.22E-06
   1      8    11.813     2.733    0.13E-03    0.10E-04    0.18E-06
 Optimization of the real space projectors (new method)

 maximal supplied QI-value         = 16.25
 optimisation between [QCUT,QGAM] = [ 11.86, 23.89] = [ 39.41,159.82] Ry
 Optimized for a Real-space Cutoff    1.33 Angstroem

   l    n(q)    QCUT    max X(q) W(low)/X(q) W(high)/X(q)  e(spline)
   1      9    11.864     3.262    0.48E-04    0.16E-03    0.14E-06
   1      9    11.864     5.741    0.74E-04    0.40E-03    0.35E-06
   2      9    11.864    60.438    0.17E-03    0.21E-03    0.26E-06
   2      9    11.864    55.380    0.17E-03    0.21E-03    0.27E-06
   0      9    11.864    80.273    0.40E-04    0.47E-04    0.12E-06
   0      9    11.864    36.654    0.35E-04    0.41E-04    0.11E-06
  PAW_PBE C 08Apr2002                   :
  PAW_PBE N 08Apr2002                   :
  PAW_PBE C 08Apr2002                   :
  PAW_PBE Cr_pv 02Aug2007               :

 POSCAR: POSCAR-clean
  positions in cartesian coordinates
 exchange correlation table for  LEXCH =        8
   RHO(1)=    0.500       N(1)  =     2000
   RHO(2)=  100.500       N(2)  =     4000

 ion  position               nearest neighbor table
   1  0.000  1.000  0.498-   2 1.42  60 1.42  70 1.43
   2  0.056  0.111  0.498-   1 1.42  13 1.42  15 1.43
   3  0.168  0.002  0.498-   4 1.42  62 1.43  60 1.43
   4  0.224  0.113  0.498-   3 1.42  15 1.42  17 1.44
   5  0.334  0.002  0.498-   6 1.42  62 1.43  64 1.43
   6  0.390  0.113  0.498-   5 1.42  19 1.42  17 1.44
   7  0.500  1.000  0.498-   8 1.42  64 1.42  66 1.43
   8  0.556  0.111  0.498-   7 1.42  21 1.42  19 1.43
   9  0.666  0.998  0.498-  10 1.42  66 1.42  68 1.44
  10  0.722  0.109  0.498-   9 1.42  23 1.43  21 1.43
  11  0.832  0.998  0.498-  12 1.42  70 1.42  68 1.44
  12  0.888  0.109  0.498-  11 1.42  23 1.43  13 1.43
  13  0.999  0.165  0.498-  14 1.42   2 1.42  12 1.43
  14  0.054  0.277  0.499-  13 1.42  25 1.42  27 1.43
  15  0.167  0.168  0.498-  16 1.42   4 1.42   2 1.43
  16  0.223  0.280  0.500-  15 1.42  27 1.43  29 1.44
  17  0.335  0.170  0.499-  18 1.42   4 1.44   6 1.44
  18  0.391  0.281  0.503-  17 1.42  31 1.44  29 1.44
  19  0.501  0.168  0.498-  20 1.42   6 1.42   8 1.43
  20  0.557  0.280  0.500-  19 1.42  33 1.43  31 1.44
  21  0.667  0.165  0.498-  22 1.42   8 1.42  10 1.43
  22  0.723  0.277  0.498-  21 1.42  35 1.42  33 1.43
  23  0.833  0.165  0.498-  24 1.42  10 1.43  12 1.43
  24  0.888  0.276  0.498-  23 1.42  25 1.42  35 1.43
  25  0.999  0.332  0.498-  14 1.42  26 1.42  24 1.42
  26  0.054  0.444  0.499-  39 1.42  37 1.42  25 1.42
  27  0.165  0.333  0.500-  28 1.42  16 1.43  14 1.43
  28  0.219  0.444  0.502-  41 1.41  27 1.42  39 1.42
  29  0.335  0.338  0.503-  30 1.41  18 1.44  16 1.44
  30  0.387  0.448  0.510-  41 1.41  29 1.41  71 2.00
  31  0.503  0.338  0.504-  32 1.41  18 1.44  20 1.44
  32  0.562  0.448  0.510-  43 1.41  31 1.41  71 2.00
  33  0.668  0.333  0.500-  34 1.42  20 1.43  22 1.43
  34  0.725  0.444  0.501-  43 1.41  33 1.42  45 1.42
  35  0.833  0.332  0.498-  22 1.42  36 1.42  24 1.43
  36  0.890  0.444  0.498-  45 1.42  37 1.42  35 1.42
  37  0.000  0.500  0.498-  36 1.42  26 1.42  38 1.42
  38  0.056  0.611  0.498-  47 1.42  49 1.42  37 1.42
  39  0.165  0.500  0.500-  26 1.42  28 1.42  40 1.42
  40  0.220  0.611  0.500-  49 1.42  51 1.42  39 1.42
  41  0.329  0.499  0.505-  30 1.41  28 1.41  42 1.44
  42  0.385  0.612  0.505-  53 1.41  51 1.41  41 1.44
  43  0.671  0.499  0.505-  32 1.41  34 1.41  44 1.44
  44  0.727  0.612  0.505-  55 1.41  57 1.41  43 1.44
  45  0.836  0.500  0.499-  36 1.42  34 1.42  46 1.42
  46  0.891  0.611  0.499-  47 1.42  57 1.42  45 1.42
  47  0.001  0.667  0.498-  46 1.42  38 1.42  48 1.42
  48  0.057  0.779  0.498-  59 1.42  47 1.42  61 1.43
  49  0.166  0.667  0.499-  40 1.42  38 1.42  50 1.42
  50  0.222  0.779  0.498-  63 1.42  49 1.42  61 1.42
  51  0.331  0.667  0.502-  42 1.41  52 1.42  40 1.42
  52  0.388  0.778  0.500-  51 1.42  65 1.43  63 1.43
  53  0.494  0.663  0.510-  42 1.41  54 1.41  71 2.00
  54  0.553  0.773  0.503-  53 1.41  67 1.44  65 1.44
  55  0.669  0.663  0.510-  44 1.41  56 1.41  71 2.00
  56  0.721  0.773  0.504-  55 1.41  67 1.44  69 1.44
  57  0.837  0.667  0.501-  44 1.41  58 1.42  46 1.42
  58  0.891  0.778  0.500-  57 1.42  69 1.42  59 1.43
  59  0.002  0.835  0.498-  60 1.42  48 1.42  58 1.43
  60  0.057  0.946  0.498-  59 1.42   1 1.42   3 1.43
  61  0.168  0.835  0.498-  62 1.42  50 1.42  48 1.43
  62  0.223  0.946  0.498-  61 1.42   3 1.43   5 1.43
  63  0.333  0.835  0.499-  64 1.42  50 1.42  52 1.43
  64  0.389  0.946  0.498-  63 1.42   7 1.42   5 1.43
  65  0.499  0.832  0.500-  66 1.42  52 1.43  54 1.44
  66  0.555  0.943  0.498-  65 1.42   9 1.42   7 1.43
  67  0.665  0.830  0.503-  68 1.42  56 1.44  54 1.44
  68  0.721  0.941  0.499-  67 1.42   9 1.44  11 1.44
  69  0.833  0.832  0.500-  70 1.42  58 1.42  56 1.44
  70  0.889  0.943  0.498-  69 1.42  11 1.42   1 1.43
  71  0.528  0.556  0.554-  55 2.00  32 2.00  53 2.00  30 2.00

IMPORTANT INFORMATION: All symmetrisations will be switched off!
NOSYMM: (Re-)initialisation of all symmetry stuff for point group C_1.

 KPOINTS: K-Points

Automatic generation of k-mesh.
Space group operators:
 irot       det(A)        alpha          n_x          n_y          n_z        tau_x        tau_y        tau_z
    1     1.000000     0.000000     1.000000     0.000000     0.000000     0.000000     0.000000     0.000000

 Subroutine IBZKPT returns following result:

 Found      4 irreducible k-points:

 Following reciprocal coordinates:
            Coordinates               Weight
  0.000000  0.000000  0.000000      1.000000
  0.500000  0.000000  0.000000      1.000000
 -0.000000  0.500000  0.000000      1.000000
  0.500000  0.500000  0.000000      1.000000

 Following cartesian coordinates:
            Coordinates               Weight
  0.000000  0.000000  0.000000      1.000000
  0.033606  0.019589  0.000000      1.000000
 -0.000000  0.039178  0.000000      1.000000
  0.033606  0.058767  0.000000      1.000000

 SYSTEM =  unknown system
 POSCAR =  POSCAR-clean

 Startparameter for this run:
   NWRITE =      2    write-flag & timer
   PREC   = accura    normal or accurate (medium, high low for compatibility)
   ISTART =      0    job   : 0-new  1-cont  2-samecut
   ICHARG =      2    charge: 1-file 2-atom 10-const
   ISPIN  =      2    spin polarized calculation?
   LNONCOLLINEAR =      F non collinear calculations
   LSORBIT =      F    spin-orbit coupling
   INIWAV =      1    electr: 0-lowe 1-rand  2-diag
   LASPH  =      F    aspherical Exc in radial PAW
   METAGGA=      F    non-selfconsistent MetaGGA calc.

 Electronic Relaxation 1
   ENCUT  =  550.0 eV  40.42 Ry    6.36 a.u.  28.45 28.25 28.68*2*pi/ulx,y,z
   ENINI  =  550.0     initial cutoff
   ENAUG  =  644.9 eV  augmentation charge cutoff
   NELM   =     50;   NELMIN=  2; NELMDL= -5     # of ELM steps
   EDIFF  = 0.1E-04   stopping-criterion for ELM
   LREAL  =      T    real-space projection
   NLSPLINE    = F    spline interpolate recip. space projectors
   LCOMPAT=      F    compatible to vasp.4.4
   GGA_COMPAT  = T    GGA compatible to vasp.4.4-vasp.4.6
   LMAXPAW     = -100 max onsite density
   LMAXMIX     =    2 max onsite mixed and CHGCAR
   VOSKOWN=      0    Vosko Wilk Nusair interpolation
   ROPT   =   -0.00025  -0.00025  -0.00025  -0.00025
 Ionic relaxation
   EDIFFG = -.5E-01   stopping-criterion for IOM
   NSW    =    400    number of steps for IOM
   NBLOCK =      1;   KBLOCK =    400    inner block; outer block
   IBRION =      2    ionic relax: 0-MD 1-quasi-New 2-CG
   NFREE  =      1    steps in history (QN), initial steepest desc. (CG)
   ISIF   =      3    stress and relaxation
   IWAVPR =     11    prediction:  0-non 1-charg 2-wave 3-comb
   ISYM   =      0    0-nonsym 1-usesym 2-fastsym
   LCORR  =      T    Harris-Foulkes like correction to forces

   POTIM  = 0.3000    time-step for ionic-motion
   TEIN   =    0.0    initial temperature
   TEBEG  =    0.0;   TEEND  =   0.0 temperature during run
   SMASS  =  -3.00    Nose mass-parameter (am)
   estimated Nose-frequenzy (Omega)   =  0.10E-29 period in steps =****** mass=  -0.506E-26a.u.
   SCALEE = 1.0000    scale energy and forces
   NPACO  =    256;   APACO  = 16.0  distance and # of slots for P.C.
   PSTRESS=    0.0 pullay stress

  Mass of Ions in am
   POMASS =  12.01 14.00 12.01 52.00
  Ionic Valenz
   ZVAL   =   4.00  5.00  4.00 12.00
  Atomic Wigner-Seitz radii
  virtual crystal weights
   VCA    =   1.00  1.00  1.00  1.00
   NELECT =     293.0000    total number of electrons
   NUPDOWN=      -1.0000    fix difference up-down

 DOS related values:
   EMIN   =  10.00;   EMAX   =-10.00  energy-range for DOS
   EFERMI =   0.00
   ISMEAR =     0;   SIGMA  =   0.10  broadening in eV -4-tet -1-fermi 0-gaus

 Electronic relaxation 2 (details)
   IALGO  =     68    algorithm
   LDIAG  =      T    sub-space diagonalisation (order eigenvalues)
   LSUBROT=      F    optimize rotation matrix (better conditioning)
   TURBO    =      0    0=normal 1=particle mesh
   IRESTART =      0    0=no restart 2=restart with 2 vectors
   NREBOOT  =      0    no. of reboots
   NMIN     =      0    reboot dimension
   EREF     =   0.00    reference energy to select bands
   IMIX   =      4    mixing-type and parameters
     AMIX     =   0.40;   BMIX     =  1.00
     AMIX_MAG =   1.60;   BMIX_MAG =  1.00
     AMIN     =   0.10
     WC   =   100.;   INIMIX=   1;  MIXPRE=   1;  MAXMIX= -45

 Intra band minimization:
[...]
    -7.428442453 12.754318856  0.000000000    -0.000000108  0.078404751  0.000000000
     0.000000000  0.000000000 15.000000000     0.000000000  0.000000000  0.066666667

  length of vectors
    14.856884906 14.759891828 15.000000000     0.077892886  0.078404751  0.066666667

 FORCES acting on ions
    electron-ion (+dipol)            ewald-force                    non-local-force                 convergence-correction
   -.158E+01 0.258E+00 0.792E+01   0.207E+01 0.293E-02 -.795E+01   -.489E+00 -.261E+00 0.274E-01   -.345E-02 -.122E-02 -.116E-03
   -.549E+01 -.185E+01 0.765E+01   0.585E+01 0.203E+01 -.767E+01   -.362E+00 -.201E+00 0.281E-01   -.183E-02 -.441E-03 -.569E-04
   -.257E+00 0.103E+01 0.740E+01   0.375E+00 -.876E+00 -.743E+01   -.114E+00 -.147E+00 0.254E-01   -.329E-02 0.682E-03 -.167E-03
   -.250E+01 0.122E+00 0.759E+01   0.263E+01 -.115E-01 -.759E+01   -.136E+00 -.126E+00 0.946E-02   -.307E-02 0.130E-02 -.941E-04
   0.255E+00 0.105E+01 0.663E+01   -.373E+00 -.892E+00 -.666E+01   0.113E+00 -.146E+00 0.199E-01   0.333E-02 0.617E-03 -.267E-03
   0.251E+01 0.118E+00 0.695E+01   -.264E+01 -.728E-02 -.695E+01   0.136E+00 -.126E+00 0.374E-02   0.306E-02 0.121E-02 -.191E-03
   0.158E+01 0.263E+00 0.768E+01   -.207E+01 -.178E-02 -.771E+01   0.488E+00 -.259E+00 0.236E-01   0.347E-02 -.137E-02 -.112E-03
   0.549E+01 -.185E+01 0.782E+01   -.585E+01 0.203E+01 -.785E+01   0.361E+00 -.198E+00 0.304E-01   0.186E-02 -.603E-03 -.449E-04
   0.223E+02 -.142E+02 0.777E+01   -.276E+02 0.173E+02 -.784E+01   0.533E+01 -.301E+01 0.779E-01   0.199E-02 -.236E-02 0.593E-04
   0.767E+01 -.880E+01 0.742E+01   -.800E+01 0.101E+02 -.744E+01   0.311E+00 -.128E+01 0.256E-01   0.178E-02 -.235E-02 0.686E-04
   -.223E+02 -.142E+02 0.715E+01   0.276E+02 0.173E+02 -.721E+01   -.533E+01 -.301E+01 0.653E-01   -.203E-02 -.227E-02 -.403E-04
   -.767E+01 -.882E+01 0.659E+01   0.800E+01 0.101E+02 -.661E+01   -.311E+00 -.128E+01 0.171E-01   -.175E-02 -.228E-02 -.369E-04
   0.586E+00 0.972E+00 0.690E+01   -.197E-01 -.663E+00 -.691E+01   -.570E+00 -.290E+00 0.395E-02   -.725E-03 -.168E-02 -.603E-04
   0.301E-01 0.179E+01 0.642E+01   0.138E+00 -.161E+01 -.644E+01   -.168E+00 -.158E+00 0.151E-01   0.262E-03 -.282E-02 -.644E-04
   0.885E+00 0.434E+01 0.878E+01   -.664E+00 -.412E+01 -.881E+01   -.231E+00 -.241E+00 0.257E-01   -.326E-02 0.175E-03 -.481E-04
   -.284E+01 0.623E+01 0.102E+02   0.338E+01 -.591E+01 -.103E+02   -.557E+00 -.315E+00 0.101E+00   -.202E-02 -.995E-03 0.195E-04
   -.148E-01 0.612E+01 0.725E+01   0.153E-01 -.569E+01 -.728E+01   -.877E-03 -.468E+00 0.266E-01   -.523E-04 0.113E-02 -.154E-03
   -.400E-01 0.748E+01 0.576E+01   0.425E-01 -.680E+01 -.537E+01   -.255E-02 -.679E+00 -.396E+00   -.103E-03 0.197E-02 -.701E-04
   -.895E+00 0.432E+01 0.835E+01   0.675E+00 -.410E+01 -.837E+01   0.229E+00 -.241E+00 0.215E-01   0.326E-02 0.489E-06 -.140E-03
   0.289E+01 0.621E+01 0.986E+01   -.344E+01 -.590E+01 -.996E+01   0.557E+00 -.313E+00 0.972E-01   0.202E-02 -.109E-02 -.800E-04
   -.582E+00 0.968E+00 0.790E+01   0.163E-01 -.658E+00 -.791E+01   0.570E+00 -.288E+00 0.620E-02   0.729E-03 -.181E-02 0.717E-04
   0.477E-02 0.178E+01 0.802E+01   -.174E+00 -.160E+01 -.804E+01   0.169E+00 -.157E+00 0.255E-01   -.208E-03 -.290E-02 0.116E-03
   0.342E-02 -.685E+01 0.598E+01   -.393E-02 0.764E+01 -.597E+01   0.190E-03 -.786E+00 -.873E-02   0.621E-04 -.287E-02 -.365E-04
   -.527E-02 -.112E+01 0.601E+01   0.478E-02 0.162E+01 -.604E+01   0.948E-03 -.476E+00 0.216E-01   0.742E-04 -.415E-02 -.156E-03
   0.678E+00 0.114E+01 0.524E+01   -.532E+00 -.999E+00 -.522E+01   -.138E+00 -.136E+00 -.260E-01   -.190E-03 -.370E-02 -.196E-03
   0.284E+01 0.307E+01 0.569E+01   -.277E+01 -.297E+01 -.573E+01   -.687E-01 -.104E+00 0.306E-01   0.113E-02 -.251E-02 -.240E-03
   0.410E+01 0.891E+01 0.681E+01   -.378E+01 -.885E+01 -.677E+01   -.307E+00 -.490E-01 -.292E-01   -.125E-03 -.194E-02 -.408E-05
   0.105E+02 0.710E+01 0.528E+01   -.103E+02 -.697E+01 -.539E+01   -.243E+00 -.119E+00 0.113E+00   0.105E-02 -.116E-03 0.297E-04
   -.486E+00 0.182E+02 0.125E+02   0.810E+00 -.173E+02 -.127E+02   -.349E+00 -.980E+00 0.217E+00   -.504E-03 0.191E-02 0.101E-03
   -.730E+01 0.354E+02 0.267E+02   0.135E+02 -.319E+02 -.258E+02   -.620E+01 -.351E+01 -.887E+00   -.123E-03 0.101E-02 -.615E-03
   0.421E+00 0.182E+02 0.114E+02   -.743E+00 -.172E+02 -.117E+02   0.345E+00 -.990E+00 0.215E+00   0.331E-03 0.186E-02 -.214E-04
   0.711E+01 0.353E+02 0.244E+02   -.133E+02 -.317E+02 -.235E+02   0.620E+01 -.352E+01 -.934E+00   -.113E-03 0.121E-02 -.736E-03
   -.408E+01 0.884E+01 0.775E+01   0.376E+01 -.878E+01 -.771E+01   0.308E+00 -.505E-01 -.320E-01   0.151E-03 -.202E-02 0.585E-04
   -.104E+02 0.707E+01 0.681E+01   0.102E+02 -.694E+01 -.692E+01   0.252E+00 -.121E+00 0.122E+00   -.102E-02 -.121E-03 0.944E-04
   -.664E+00 0.111E+01 0.668E+01   0.517E+00 -.974E+00 -.667E+01   0.140E+00 -.136E+00 -.215E-01   0.295E-03 -.374E-02 -.189E-04
   -.281E+01 0.309E+01 0.760E+01   0.275E+01 -.299E+01 -.764E+01   0.725E-01 -.103E+00 0.424E-01   -.100E-02 -.252E-02 -.452E-04
   -.103E-01 -.803E+00 0.627E+01   0.947E-02 0.860E+00 -.629E+01   0.132E-02 -.519E-01 0.109E-01   0.933E-04 -.298E-02 -.235E-03
   -.604E-02 -.620E-01 0.622E+01   0.475E-02 0.543E-01 -.623E+01   0.196E-02 0.798E-02 0.105E-01   0.931E-04 0.438E-03 -.270E-03
   0.596E+01 0.556E+00 0.396E+01   -.582E+01 -.567E+00 -.391E+01   -.121E+00 0.869E-02 -.446E-01   0.240E-02 -.642E-03 -.147E-03
   0.623E+01 -.604E+00 0.403E+01   -.619E+01 0.541E+00 -.399E+01   -.367E-01 0.724E-01 -.373E-01   0.379E-02 0.812E-03 -.194E-03
   0.259E+02 0.987E+01 0.140E+02   -.250E+02 -.104E+02 -.146E+02   -.834E+00 0.525E+00 0.592E+00   0.127E-02 0.867E-03 0.101E-03
   0.246E+02 -.759E+01 0.146E+02   -.238E+02 0.791E+01 -.152E+02   -.797E+00 -.330E+00 0.579E+00   0.110E-02 0.258E-02 -.202E-04
   -.257E+02 0.977E+01 0.134E+02   0.248E+02 -.103E+02 -.140E+02   0.849E+00 0.518E+00 0.556E+00   -.142E-02 0.886E-03 -.659E-04
   -.244E+02 -.748E+01 0.140E+02   0.236E+02 0.779E+01 -.145E+02   0.811E+00 -.322E+00 0.544E+00   -.126E-02 0.257E-02 -.194E-03
   -.587E+01 0.538E+00 0.665E+01   0.572E+01 -.548E+00 -.661E+01   0.125E+00 0.845E-02 -.323E-01   -.236E-02 -.681E-03 0.855E-04
   -.613E+01 -.577E+00 0.672E+01   0.609E+01 0.512E+00 -.669E+01   0.405E-01 0.724E-01 -.254E-01   -.376E-02 0.843E-03 0.258E-04
   -.341E+01 -.365E+01 0.748E+01   0.339E+01 0.364E+01 -.752E+01   0.114E-01 0.265E-02 0.423E-01   -.268E-02 0.572E-03 -.142E-03
   -.183E+01 -.309E+01 0.659E+01   0.187E+01 0.310E+01 -.657E+01   -.664E-01 -.801E-02 -.177E-01   -.246E-02 0.814E-03 -.192E-03
   0.342E+01 -.364E+01 0.557E+01   -.341E+01 0.362E+01 -.560E+01   -.794E-02 0.274E-02 0.313E-01   0.281E-02 0.546E-03 -.320E-03
   0.183E+01 -.312E+01 0.517E+01   -.187E+01 0.313E+01 -.515E+01   0.679E-01 -.800E-02 -.209E-01   0.256E-02 0.754E-03 -.347E-03
   0.133E+02 -.550E+01 0.603E+01   -.131E+02 0.523E+01 -.615E+01   -.184E+00 0.280E+00 0.111E+00   0.325E-02 0.215E-02 -.101E-03
   0.747E+01 -.763E+01 0.692E+01   -.769E+01 0.741E+01 -.688E+01   0.207E+00 0.213E+00 -.446E-01   0.545E-02 0.249E-02 -.206E-03
   -.437E+01 -.318E+02 0.253E+02   0.107E+02 0.275E+02 -.242E+02   -.632E+01 0.427E+01 -.104E+01   -.132E-02 0.409E-02 -.972E-03
   0.355E+01 -.818E+01 0.125E+02   -.430E+01 0.611E+01 -.127E+02   0.753E+00 0.205E+01 0.233E+00   -.145E-02 0.237E-02 0.179E-05
   0.416E+01 -.317E+02 0.229E+02   -.105E+02 0.274E+02 -.218E+02   0.631E+01 0.428E+01 -.110E+01   0.110E-02 0.395E-02 -.110E-02
   -.361E+01 -.811E+01 0.114E+02   0.436E+01 0.602E+01 -.116E+02   -.756E+00 0.206E+01 0.225E+00   0.129E-02 0.245E-02 -.142E-03
   -.132E+02 -.547E+01 0.756E+01   0.130E+02 0.520E+01 -.768E+01   0.193E+00 0.282E+00 0.120E+00   -.324E-02 0.216E-02 -.531E-04
   -.744E+01 -.755E+01 0.789E+01   0.766E+01 0.732E+01 -.785E+01   -.207E+00 0.214E+00 -.447E-01   -.545E-02 0.255E-02 -.167E-03
   -.431E+01 -.224E+01 0.791E+01   0.440E+01 0.227E+01 -.794E+01   -.113E+00 -.430E-01 0.321E-01   -.579E-02 0.752E-03 -.130E-03
   -.389E+01 -.514E+01 0.778E+01   0.413E+01 0.516E+01 -.779E+01   -.228E+00 -.371E-01 0.878E-02   -.533E-02 0.528E-03 -.141E-03
   -.104E-01 -.234E+01 0.605E+01   0.994E-02 0.243E+01 -.607E+01   0.841E-03 -.810E-01 0.220E-01   0.572E-04 -.156E-03 -.311E-03
   -.470E-02 -.264E+01 0.599E+01   0.439E-02 0.269E+01 -.598E+01   0.414E-03 -.599E-01 -.173E-01   0.401E-04 0.673E-03 -.277E-03
   0.434E+01 -.224E+01 0.638E+01   -.443E+01 0.227E+01 -.640E+01   0.115E+00 -.424E-01 0.223E-01   0.589E-02 0.694E-03 -.286E-03
   0.389E+01 -.514E+01 0.683E+01   -.413E+01 0.516E+01 -.684E+01   0.228E+00 -.361E-01 0.721E-02   0.540E-02 0.426E-03 -.263E-03
   0.580E+01 -.252E+01 0.108E+02   -.595E+01 0.182E+01 -.108E+02   0.160E+00 0.702E+00 0.714E-01   0.136E-02 0.122E-02 -.332E-04
   0.124E+02 -.702E+01 0.895E+01   -.137E+02 0.645E+01 -.897E+01   0.131E+01 0.606E+00 0.259E-01   0.195E-02 -.238E-02 -.165E-04
   -.314E-01 0.191E+02 0.492E+01   0.337E-01 -.260E+02 -.421E+01   -.323E-02 0.700E+01 -.712E+00   -.396E-04 0.277E-02 -.345E-04
   -.117E-01 -.603E+01 0.864E+01   0.135E-01 0.550E+01 -.874E+01   -.172E-02 0.546E+00 0.987E-01   -.103E-04 0.335E-03 -.142E-03
   -.575E+01 -.251E+01 0.105E+02   0.590E+01 0.181E+01 -.106E+02   -.159E+00 0.702E+00 0.675E-01   -.145E-02 0.128E-02 -.153E-03
   -.124E+02 -.699E+01 0.861E+01   0.137E+02 0.642E+01 -.864E+01   -.131E+01 0.605E+00 0.249E-01   -.203E-02 -.225E-02 -.119E-03
   -.472E+00 0.931E+01 -.633E+03   0.574E+00 -.913E+01 0.615E+03   -.105E+00 -.169E+00 0.182E+02   -.427E-03 0.176E-02 -.561E-02
   0.637E-01 0.450E+00 -.176E+02   0.195E-13 0.902E-12 -.227E-12   -.631E-01 -.437E+00 0.176E+02   -.594E-03 0.434E-03 -.154E-01

 POSITION                                       TOTAL-FORCE (eV/Angst)
     -0.00814     -0.00135      7.46457         0.003504     -0.000176     -0.001893
     -0.00142      1.41905      7.46588        -0.010306     -0.018734      0.000512
      2.47829      0.02581      7.46295         0.001738      0.012689     -0.001237
      2.47875      1.44578      7.47370        -0.005786     -0.013906      0.001501
      4.95390      0.02563      7.46594        -0.002531      0.013430     -0.004400
      4.95354      1.44556      7.47573         0.005854     -0.012766     -0.001595
      7.44034     -0.00175      7.46586        -0.004787      0.001716     -0.001697
      7.43364      1.41866      7.46484         0.008801     -0.016214      0.000232
      2.49410     12.71929      7.47451         0.001510      0.007617      0.003968
      9.92043      1.38406      7.46353        -0.018541     -0.014195      0.002486
      4.93822     12.71951      7.47634        -0.003044      0.006943      0.001613
     12.36868      1.38425      7.46655         0.018230     -0.014641     -0.000127
     13.61069      2.10300      7.46726        -0.003153      0.020006     -0.002284
     -1.24942      3.52413      7.47742         0.000936      0.017408      0.000003
      1.23657      2.14403      7.47532        -0.010056     -0.018295      0.001194
      1.23542      3.56711      7.50066        -0.007606     -0.003912     -0.000639
      3.71617      2.17067      7.49117        -0.000355     -0.031573     -0.000216
      3.71621      3.59005      7.53793        -0.000108      0.004918     -0.005471
      6.19572      2.14373      7.47611         0.008990     -0.017154     -0.001413
      6.19680      3.56687      7.50039         0.006882      0.000419     -0.003546
      8.67833      2.10270      7.46279         0.003127      0.021353      0.000961
      8.68142      3.52389      7.47039        -0.001368      0.018818      0.004693
     11.14450      2.10540      7.46466        -0.000258     -0.006782      0.000578
     11.14441      3.52419      7.46645         0.000536      0.012347     -0.004758
     12.37597      4.23673      7.47473         0.007695     -0.004085     -0.006675
     -2.48742      5.65934      7.48127         0.001051     -0.003194     -0.005837
     -0.01680      4.24399      7.50052         0.008329      0.004141      0.006155
     -0.04039      5.66240      7.52705         0.017974      0.007088      0.004563
      2.47399      4.31089      7.55039        -0.011832     -0.011760     -0.001451
      2.42951      5.72363      7.63988         0.020762      0.000090      0.007098
      4.95844      4.31095      7.55279         0.010273     -0.009563     -0.005737
      5.00297      5.72375      7.64454        -0.021564      0.002967      0.000498
      7.44885      4.24382      7.49509        -0.008099      0.004053      0.007390
      7.47222      5.66232      7.51966        -0.017590      0.008499      0.006408
      9.91281      4.23660      7.46852        -0.006697     -0.003279     -0.001449
      9.91912      5.65931      7.47346         0.002033     -0.003581      0.000960
     -3.71262      6.37383      7.47412         0.000616      0.000985     -0.007521
     -3.71265      7.79734      7.47423         0.000777      0.002121     -0.005537
     -1.26590      6.37524      7.50494         0.020977     -0.004643      0.002142
     -1.26494      7.79627      7.50459         0.007665      0.011703     -0.001869
      1.18103      6.37287      7.57828         0.013593     -0.007684      0.000705
      1.18425      7.80782      7.57735         0.024465     -0.004161      0.005962
      6.25124      6.37286      7.57782        -0.013023     -0.007461     -0.004799
      6.24801      7.80783      7.57694        -0.024216     -0.003568      0.000893
      8.69759      6.37524      7.49354        -0.019741     -0.003891      0.009889
      8.69660      7.79628      7.49320        -0.006328      0.010810      0.005452
     -4.93837      8.51238      7.47364        -0.008443     -0.013968      0.001229
     -4.94380      9.93533      7.46859        -0.027802      0.000416     -0.000626
     -2.48689      8.51232      7.48143         0.011000     -0.014065     -0.005305
     -2.48128      9.93520      7.47472         0.028961      0.001134     -0.005389
     -0.03713      8.50908      7.52536         0.022193      0.018197     -0.001367
     -0.01398      9.92746      7.49986        -0.008276     -0.004146     -0.002125
      2.44011      8.45759      7.64431         0.011524      0.001037      0.019359
      2.47587      9.87468      7.54984         0.020516     -0.015740      0.006902
      4.99241      8.45752      7.64918        -0.011077     -0.002423      0.013722
      4.95662      9.87465      7.55235        -0.021137     -0.018755      0.002596
      7.46893      8.50917      7.51800        -0.020959      0.017478     -0.000250
      7.44605      9.92766      7.49436         0.007041     -0.004627     -0.001591
     -6.17978     10.64466      7.47042        -0.028965     -0.011890      0.001850
     -6.18927     12.06173      7.46281         0.004359     -0.019207     -0.000938
     -3.71251     10.64837      7.46619         0.000471      0.007270     -0.004463
     -3.71241     12.06985      7.46415         0.000146     -0.005419     -0.003649
     -1.24515     10.64440      7.47733         0.029306     -0.011167     -0.002514
     -1.23549     12.06144      7.46725        -0.004193     -0.018133     -0.004450
      1.23541     10.60410      7.49952         0.012688      0.003923     -0.005551
      1.25191     12.02278      7.47532         0.000475      0.037174     -0.002013
      3.71625     10.59543      7.53804        -0.001007      0.032886     -0.002996
      3.71618     12.00402      7.49206         0.000068      0.017396      0.002708
      6.19683     10.60436      7.49899        -0.012529      0.001057     -0.009224
      6.18036     12.02310      7.47577        -0.001219      0.035056     -0.005364
      3.71396      7.08899      8.32653        -0.002469      0.011617      0.003741
    total drift:                                0.000078      0.013161     -0.019351

  FREE ENERGIE OF THE ION-ELECTRON SYSTEM (eV)
  free  energy   TOTEN  =      -653.37120962 eV

  energy  without entropy=     -653.33010312  energy(sigma->0) =     -653.35065637

 d Force = 0.1002633E-02[ 0.402E-03, 0.160E-02]  d Energy = 0.9388586E-03 0.638E-04
 d Force = 0.4714914E-01[ 0.423E-01, 0.520E-01]  d Ewald  =-0.3807413E+01 0.385E+01

 Conjugate gradient step on ions:
 trial-energy change:   -0.000939  1 .order   -0.001033   -0.001639   -0.000426
  (g-gl).g = 0.216E-02      g.g   = 0.207E-02  gl.gl    = 0.603E-02
 g(Force)  = 0.193E-02   g(Stress)= 0.141E-03 ortho     =-0.726E-04
 gamma     =   0.35893
 trial     =   0.80205
 opt step  =   1.08371  (harmonic =   1.08371) maximal distance =0.00238731
 next E    =  -653.371378   (d E  =  -0.00111)

 reached required accuracy - stopping structural energy minimisation