 vasp.5.4.4.18Apr17-6-g9f103f2a35 (build Jan 14 2022 15:04:31) complex

 executed on             LinuxIFC date 2023.04.05  11:31:11

 INCAR:
 POTCAR:    PAW_PBE C 08Apr2002
 POTCAR:    PAW_PBE N 08Apr2002
 POTCAR:    PAW_PBE Ge_d 03Jul2007
 POTCAR:    PAW_PBE C 08Apr2002
   VRHFIN =C: s2p2

   TITEL  = PAW_PBE C 08Apr2002
   POMASS =   12.011; ZVAL   =    4.000    mass and valenz
   ENMAX  =  400.000; ENMIN  =  300.000 eV

   TITEL  = PAW_PBE N 08Apr2002
   POMASS =   14.001; ZVAL   =    5.000    mass and valenz
   ENMAX  =  400.000; ENMIN  =  300.000 eV

   TITEL  = PAW_PBE Ge_d 03Jul2007
   POMASS =   72.610; ZVAL   =   14.000    mass and valenz
   ENMAX  =  310.294; ENMIN  =  232.720 eV

  PAW_PBE C 08Apr2002                   :
  PAW_PBE N 08Apr2002                   :
  PAW_PBE Ge_d 03Jul2007                :

 POSCAR: POSCAR-c3n4
  positions in cartesian coordinates
 exchange correlation table for  LEXCH =        8
   RHO(1)=    0.500       N(1)  =     2000
   RHO(2)=  100.500       N(2)  =     4000

 VTST: version 3.2, (02/03/18)

 CHAIN: initializing optimizer

 OPT: Using VASP Dynamics algorithm
 CHAIN: Read ICHAIN            0

 POSCAR: POSCAR-c3n4
  positions in cartesian coordinates

 ion  position               nearest neighbor table
   1  0.106  0.214  0.426-  26 1.15  46 1.15  25 1.22   6 1.94  16 1.94
   2  0.288  0.399  0.433-  29 1.14  35 1.19  25 1.23   5 1.97  10 2.00
   3  0.104  0.392  0.427-  44 1.13  39 1.19  25 1.23  17 1.96  12 1.99
   4  0.447  0.064  0.506-  30 1.14  27 1.15  48 1.21  13 1.95   8 1.95
   5  0.453  0.401  0.413-  28 1.14  29 1.15  56 1.23  15 1.94   2 1.97
   6  0.112  0.053  0.449-  26 1.14  31 1.15  32 1.20   9 1.93   1 1.94  16 2.06
   7  0.096  0.712  0.484-  54 1.14  34 1.17  33 1.21  12 1.93  22 1.96
   8  0.284  0.890  0.501-  27 1.15  37 1.16  33 1.22   4 1.95  11 1.95
   9  0.109  0.895  0.498-  31 1.14  52 1.16  33 1.23   6 1.93  23 1.94
  10  0.448  0.548  0.502-  38 1.14  56 1.17  35 1.17  19 1.93   2 2.00  24 2.03  57 2.35
  11  0.445  0.885  0.489-  37 1.15  36 1.15  48 1.19  21 1.95   8 1.95
  12  0.087  0.542  0.481-  34 1.14  40 1.16  39 1.17   7 1.93   3 1.99  22 2.06  57 2.35
  13  0.616  0.223  0.473-  42 1.16  30 1.16  41 1.21   4 1.95  18 1.95
  14  0.780  0.390  0.400-  45 1.16  51 1.17  41 1.21  17 1.93  22 1.93
  15  0.610  0.394  0.435-  28 1.15  55 1.15  41 1.25  24 1.94   5 1.94
  16  0.940  0.052  0.461-  46 1.13  43 1.15  32 1.20  20 1.93   1 1.94   6 2.06
  17  0.941  0.387  0.394-  45 1.14  44 1.15  40 1.22  14 1.93   3 1.96
  18  0.623  0.066  0.512-  42 1.14  47 1.15  48 1.21  13 1.95  21 1.95
  19  0.613  0.711  0.531-  50 1.14  38 1.17  49 1.21  10 1.93  24 1.96
  20  0.790  0.897  0.523-  43 1.14  53 1.15  49 1.24  16 1.93  23 1.94
  21  0.609  0.892  0.521-  47 1.15  36 1.16  49 1.24  18 1.95  11 1.95
  22  0.938  0.563  0.421-  51 1.13  54 1.16  40 1.22  14 1.93   7 1.96  12 2.06
  23  0.954  0.902  0.535-  52 1.15  53 1.15  32 1.20  20 1.94   9 1.94
  24  0.621  0.555  0.490-  55 1.13  50 1.14  56 1.22  15 1.94  19 1.96  10 2.03
  25  0.167  0.335  0.425-   1 1.22   3 1.23   2 1.23
  26  0.165  0.161  0.421-   6 1.14   1 1.15
  27  0.336  0.002  0.522-   8 1.15   4 1.15
  28  0.512  0.352  0.392-   5 1.14  15 1.15
  29  0.345  0.361  0.390-   2 1.14   5 1.15
  30  0.506  0.177  0.493-   4 1.14  13 1.16
  31  0.159  0.988  0.447-   9 1.14   6 1.15
  32  0.002  0.002  0.483-  16 1.20  23 1.20   6 1.20
  33  0.165  0.831  0.500-   7 1.21   8 1.22   9 1.23
  34  0.134  0.645  0.518-  12 1.14   7 1.17  57 2.26
  35  0.334  0.491  0.492-  10 1.17   2 1.19  57 1.77
  36  0.503  0.831  0.490-  11 1.15  21 1.16
  37  0.333  0.829  0.479-  11 1.15   8 1.16
  38  0.499  0.648  0.545-  10 1.14  19 1.17  57 2.27
  39  0.142  0.484  0.485-  12 1.17   3 1.19  57 1.79
  40  0.988  0.496  0.436-  12 1.16  22 1.22  17 1.22
  41  0.667  0.330  0.429-  13 1.21  14 1.21  15 1.25
  42  0.680  0.178  0.495-  18 1.14  13 1.16
  43  0.827  0.986  0.468-  20 1.14  16 1.15
  44  0.011  0.348  0.379-   3 1.13  17 1.15
  45  0.830  0.330  0.380-  17 1.14  14 1.16
  46  0.993  0.161  0.435-  16 1.13   1 1.15
  47  0.669  0.005  0.539-  21 1.15  18 1.15
  48  0.505  0.004  0.498-  11 1.19  18 1.21   4 1.21
  49  0.668  0.832  0.534-  19 1.21  21 1.24  20 1.24
  50  0.675  0.666  0.512-  19 1.14  24 1.14
  51  0.832  0.507  0.396-  22 1.13  14 1.17
  52  0.016  0.853  0.549-  23 1.15   9 1.16
  53  0.849  0.860  0.566-  20 1.15  23 1.15
  54  0.004  0.677  0.435-   7 1.14  22 1.16
  55  0.668  0.491  0.484-  24 1.13  15 1.15
  56  0.506  0.502  0.467-  10 1.17  24 1.22   5 1.23
  57  0.287  0.593  0.558-  35 1.77  39 1.79  34 2.26  38 2.27  10 2.35  12 2.35

IMPORTANT INFORMATION: All symmetrisations will be switched off!
NOSYMM: (Re-)initialisation of all symmetry stuff for point group C_1.

 KPOINTS: K-Points

Automatic generation of k-mesh.
Space group operators:
 irot       det(A)        alpha          n_x          n_y          n_z        tau_x        tau_y        tau_z
    1     1.000000     0.000000     1.000000     0.000000     0.000000     0.000000     0.000000     0.000000

 Subroutine IBZKPT returns following result:

 Found      5 irreducible k-points:

 Following reciprocal coordinates:
            Coordinates               Weight
  0.000000  0.000000  0.000000      1.000000
  0.333333 -0.000000  0.000000      2.000000
  0.000000  0.333333  0.000000      2.000000
  0.333333  0.333333  0.000000      2.000000
 -0.333333  0.333333  0.000000      2.000000

 Following cartesian coordinates:
            Coordinates               Weight
  0.000000  0.000000  0.000000      1.000000
  0.024277  0.014368  0.000000      2.000000
  0.000396  0.028736  0.000000      2.000000
  0.024673  0.043104  0.000000      2.000000
 -0.023881  0.014368  0.000000      2.000000

 TETIRR: Found     24 inequivalent tetrahedra from       54

 SYSTEM =  unknown system
 POSCAR =  POSCAR-c3n4

 Startparameter for this run:
   NWRITE =      2    write-flag & timer
   PREC   = normal    normal or accurate (medium, high low for compatibility)
   ISTART =      0    job   : 0-new  1-cont  2-samecut
   ICHARG =      2    charge: 1-file 2-atom 10-const
   ISPIN  =      2    spin polarized calculation?
   LNONCOLLINEAR =      F non collinear calculations
   LSORBIT =      F    spin-orbit coupling
   INIWAV =      1    electr: 0-lowe 1-rand  2-diag
   LASPH  =      F    aspherical Exc in radial PAW
   METAGGA=      F    non-selfconsistent MetaGGA calc.

 Electronic Relaxation 1
   ENCUT  =  440.0 eV  32.34 Ry    5.69 a.u.  20.36 19.99 22.06*2*pi/ulx,y,z
   ENINI  =  440.0     initial cutoff
   ENAUG  =  644.9 eV  augmentation charge cutoff
   NELM   =    100;   NELMIN=  2; NELMDL= -5     # of ELM steps
   EDIFF  = 0.1E-03   stopping-criterion for ELM
   LREAL  =      F    real-space projection
   NLSPLINE    = F    spline interpolate recip. space projectors
   LCOMPAT=      F    compatible to vasp.4.4
   GGA_COMPAT  = T    GGA compatible to vasp.4.4-vasp.4.6
   LMAXPAW     = -100 max onsite density
   LMAXMIX     =    2 max onsite mixed and CHGCAR
   VOSKOWN=      0    Vosko Wilk Nusair interpolation
   ROPT   =    0.00000   0.00000   0.00000
 Ionic relaxation
   EDIFFG = -.1E-01   stopping-criterion for IOM
   NSW    =      0    number of steps for IOM
   NBLOCK =      1;   KBLOCK =      1    inner block; outer block
   IBRION =     -1    ionic relax: 0-MD 1-quasi-New 2-CG
   NFREE  =      0    steps in history (QN), initial steepest desc. (CG)
   ISIF   =      2    stress and relaxation
   IWAVPR =     10    prediction:  0-non 1-charg 2-wave 3-comb
   ISYM   =      0    0-nonsym 1-usesym 2-fastsym
   LCORR  =      T    Harris-Foulkes like correction to forces

   POTIM  = 0.5000    time-step for ionic-motion
   TEIN   =    0.0    initial temperature
   TEBEG  =    0.0;   TEEND  =   0.0 temperature during run
   SMASS  =  -3.00    Nose mass-parameter (am)
   estimated Nose-frequenzy (Omega)   =  0.10E-29 period in steps =****** mass=  -0.324E-26a.u.
   SCALEE = 1.0000    scale energy and forces
   NPACO  =    256;   APACO  = 16.0  distance and # of slots for P.C.
   PSTRESS=    0.0 pullay stress

  Mass of Ions in am
   POMASS =  12.01 14.00 72.61
  Ionic Valenz
   ZVAL   =   4.00  5.00 14.00
  Atomic Wigner-Seitz radii
  virtual crystal weights
   VCA    =   1.00  1.00  1.00
   NELECT =     270.0000    total number of electrons
   NUPDOWN=      -1.0000    fix difference up-down

 DOS related values:
   EMIN   = -14.00;   EMAX   =  6.00  energy-range for DOS
   EFERMI =   0.00
   ISMEAR =    -5;   SIGMA  =   0.20  broadening in eV -4-tet -1-fermi 0-gaus

 Electronic relaxation 2 (details)
   IALGO  =     38    algorithm
   LDIAG  =      T    sub-space diagonalisation (order eigenvalues)
   LSUBROT=      F    optimize rotation matrix (better conditioning)
   TURBO    =      0    0=normal 1=particle mesh
   IRESTART =      0    0=no restart 2=restart with 2 vectors
   NREBOOT  =      0    no. of reboots
   NMIN     =      0    reboot dimension
   EREF     =   0.00    reference energy to select bands
   IMIX   =      4    mixing-type and parameters
     AMIX     =   0.25;   BMIX     =  0.00
     AMIX_MAG =   1.00;   BMIX_MAG =  0.00
     AMIN     =   0.10
     WC   =   100.;   INIMIX=   1;  MIXPRE=   1;  MAXMIX= -45

 Intra band minimization:
   WEIMIN = 0.0000     energy-eigenvalue tresh-hold
   EBREAK =  0.15E-06  absolut break condition
   DEPER  =   0.30     relativ break condition

   TIME   =   0.40     timestep for ELM

  volume/ion in A,a.u.               =      26.88       181.39
  Fermi-wavevector in a.u.,A,eV,Ry     =   0.917844  1.734474 11.462063  0.842438
  Thomas-Fermi vector in A             =   2.042859

 Write flags
   LWAVE        =      F    write WAVECAR
   LDOWNSAMPLE  =      F    k-point downsampling of WAVECAR
   LCHARG       =      F    write CHGCAR
   LVTOT        =      F    write LOCPOT, total local potential
   LVHAR        =      F    write LOCPOT, Hartree potential only
   LELF         =      F    write electronic localiz. function (ELF)
   LORBIT       =     11    0 simple, 1 ext, 2 COOP (PROOUT), +10 PAW based schemes

 Dipole corrections
   LMONO  =      F    monopole corrections only (constant potential shift)
   LDIPOL =      F    correct potential (dipole corrections)
   IDIPOL =      0    1-x, 2-y, 3-z, 4-all directions
   EPSILON=  1.0000000 bulk dielectric constant

 Exchange correlation treatment:
   GGA     =    --    GGA type
   VOSKOWN=      0    Vosko Wilk Nusair interpolation
   LHFCALC =     F    Hartree Fock is set to
   LHFONE  =     F    Hartree Fock one center treatment
   AEXX    =    0.0000 exact exchange contribution

 Linear response parameters
   LEPSILON=     F    determine dielectric tensor
   LRPA    =     F    only Hartree local field effects (RPA)
   LNABLA  =     F    use nabla operator in PAW spheres
   LVEL    =     F    velocity operator in full k-point grid
   LINTERFAST=   F  fast interpolation
   KINTER  =     0    interpolate to denser k-point grid
   CSHIFT  =0.1000    complex shift for real part using Kramers Kronig
   OMEGAMAX=  -1.0    maximum frequency
[...]
  Kinetic  5203.88207  5244.56326  5510.24885     8.34037   -27.97974   -11.64533
  Fock        0.00000     0.00000     0.00000     0.00000     0.00000     0.00000
  vdW        -4.74095    -4.60736    -0.56867     0.00438    -0.02496    -0.00817
  Total     760.74663   682.37565   152.94727   -13.69914    38.03315    20.92516
  in kB     795.55315   713.59645   159.94508   -14.32592    39.77328    21.88256

 VOLUME and BASIS-vectors are now :
  energy-cutoff  :      440.00
  volume of cell :     1532.08
      direct lattice vectors                 reciprocal lattice vectors
    11.905344842 -0.164036808  0.000000000     0.084686476  0.050121063  0.000000000
    -5.952672421 10.057864255  0.000000000     0.001381178  0.100242126  0.000000000
     0.000000000  0.000000000 12.900000000     0.000000000  0.000000000  0.077519380

  length of vectors
    11.906474872 11.687383895 12.900000000     0.098406911  0.100251641  0.077519380

 FORCES acting on ions
    electron-ion (+dipol)            ewald-force                    non-local-force                 convergence-correction
   -.702E+01 0.155E+02 0.148E+03   0.726E+01 -.139E+02 -.149E+03   -.247E+00 0.401E+01 -.152E+01   -.101E-01 -.944E-02 -.839E-03
   -.424E+01 0.368E+02 0.162E+03   0.141E+01 -.372E+02 -.163E+03   -.361E+01 0.108E+01 0.286E+00   -.309E-02 -.144E-01 -.997E-02
   -.130E+02 0.398E+02 0.161E+03   0.160E+02 -.401E+02 -.161E+03   0.324E+01 0.100E+01 0.678E+00   -.338E-01 -.136E-01 -.112E-01
   0.877E+02 -.720E+02 -.109E+03   -.914E+02 0.732E+02 0.111E+03   0.379E+01 -.201E+01 -.429E+00   0.319E-01 -.192E-01 0.125E-03
   -.183E+02 0.689E+02 0.253E+03   0.182E+02 -.713E+02 -.257E+03   -.361E+00 0.414E+01 0.250E+01   0.122E-01 0.449E-02 0.803E-03
   -.819E+02 -.237E+02 0.122E+03   0.854E+02 0.250E+02 -.124E+03   -.373E+01 -.191E+01 0.154E+01   -.726E-02 -.118E-01 0.316E-02
   0.521E+02 -.319E+02 -.410E+02   -.517E+02 0.337E+02 0.429E+02   0.807E+00 0.265E+01 0.876E+00   -.883E-02 0.437E-02 -.558E-02
   0.291E+02 -.229E+02 -.620E+02   -.304E+02 0.211E+02 0.621E+02   -.303E+01 -.213E+01 0.574E+00   0.365E-02 0.137E-02 0.871E-02
   -.655E+01 -.420E+01 -.752E+02   0.772E+01 0.206E+01 0.759E+02   0.345E+01 -.168E+01 0.364E+00   0.132E-01 -.103E-01 -.287E-02
   -.318E+02 0.217E+02 -.913E+02   0.293E+02 -.207E+02 0.932E+02   0.122E+01 -.205E+01 -.142E+01   0.177E-01 0.222E-01 0.122E-01
   -.429E+01 0.273E+02 0.593E+02   0.435E+01 -.319E+02 -.599E+02   0.984E-01 0.403E+01 -.636E+00   0.510E-02 0.279E-01 0.219E-01
   0.417E+02 0.194E+02 -.813E+02   -.392E+02 -.185E+02 0.840E+02   -.132E+01 -.254E+01 -.937E+00   -.253E-01 -.801E-03 -.967E-02
   -.471E+01 -.177E+02 -.204E+02   0.519E+01 0.183E+02 0.189E+02   -.232E+00 0.388E+01 -.800E+00   0.125E-01 -.154E-01 -.249E-02
   0.452E+02 0.350E+02 0.245E+03   -.468E+02 -.358E+02 -.245E+03   -.338E+01 -.139E+01 -.111E+01   0.235E-01 -.774E-03 0.606E-02
   -.128E+02 0.257E+02 0.110E+03   0.144E+02 -.280E+02 -.110E+03   0.353E+01 -.132E+01 -.506E+00   0.180E-01 -.373E-02 0.609E-03
   0.848E+02 -.224E+02 0.835E+02   -.885E+02 0.235E+02 -.848E+02   0.377E+01 -.201E+01 0.813E+00   -.941E-03 -.130E-01 0.657E-02
   0.451E+01 0.973E+02 0.272E+03   -.307E+01 -.999E+02 -.275E+03   -.204E+00 0.392E+01 0.229E+01   -.140E-01 0.550E-02 0.624E-02
   -.835E+02 -.758E+02 -.125E+03   0.875E+02 0.773E+02 0.126E+03   -.371E+01 -.192E+01 -.629E+00   -.212E-01 -.180E-01 -.241E-02
   -.444E+02 -.303E+02 -.178E+03   0.428E+02 0.329E+02 0.180E+03   -.419E+00 0.266E+01 0.880E+00   0.458E-02 0.259E-01 0.427E-02
   0.104E+02 -.602E+01 -.137E+03   -.121E+02 0.393E+01 0.139E+03   -.354E+01 -.159E+01 0.596E+00   -.198E-01 -.390E-02 -.163E-04
   -.321E+02 -.175E+02 -.112E+03   0.340E+02 0.156E+02 0.113E+03   0.295E+01 -.226E+01 0.120E+01   -.687E-03 0.753E-02 0.961E-02
   0.944E+02 -.887E+02 0.176E+03   -.961E+02 0.931E+02 -.176E+03   0.369E+01 -.284E+01 0.421E+00   0.107E-01 -.132E-01 0.504E-02
   -.136E+02 0.560E+02 -.239E+03   0.137E+02 -.601E+02 0.242E+03   -.833E-01 0.431E+01 -.189E+01   -.516E-02 0.574E-02 -.113E-01
   -.109E+03 -.326E+02 -.764E+02   0.112E+03 0.344E+02 0.784E+02   -.413E+01 -.145E+01 -.151E+01   -.543E-02 0.989E-02 0.319E-02
   -.180E+02 0.477E+02 0.214E+03   0.188E+02 -.483E+02 -.219E+03   -.329E+00 0.159E+01 0.330E+01   -.439E-01 -.175E-01 -.622E-02
   -.250E+03 -.413E+02 0.285E+03   0.296E+03 0.658E+02 -.305E+03   -.322E+02 -.166E+02 0.132E+02   -.993E-02 -.235E-01 0.150E-02
   0.202E+03 -.197E+03 -.302E+03   -.246E+03 0.221E+03 0.321E+03   0.314E+02 -.169E+02 -.106E+02   0.357E-01 -.225E-01 -.211E-02
   0.687E+01 0.221E+03 0.503E+03   -.315E+01 -.263E+03 -.538E+03   -.170E+01 0.294E+02 0.224E+02   0.221E-01 -.488E-02 -.375E-02
   -.456E+02 0.180E+03 0.531E+03   0.434E+02 -.218E+03 -.570E+03   0.162E+01 0.282E+02 0.257E+02   0.133E-01 -.157E-01 -.212E-01
   0.250E+03 -.126E+03 -.143E+03   -.293E+03 0.156E+03 0.145E+03   0.304E+02 -.194E+02 -.153E-01   0.402E-01 -.356E-01 0.728E-03
   -.188E+03 -.103E+03 0.321E+03   0.232E+03 0.118E+03 -.352E+03   -.309E+02 -.105E+02 0.198E+02   0.802E-03 -.228E-01 0.110E-01
   -.565E+01 -.259E+01 -.307E+02   0.613E+01 0.223E+01 0.325E+02   -.207E+00 0.185E+00 -.106E+01   -.555E-02 -.862E-02 -.221E-02
   0.204E+02 -.284E+02 -.123E+03   -.204E+02 0.296E+02 0.130E+03   0.274E+00 -.782E+00 -.408E+01   0.665E-02 -.612E-02 0.148E-02
   -.288E+01 -.770E+02 -.384E+03   0.340E+02 0.976E+02 0.422E+03   -.228E+02 -.143E+02 -.241E+02   -.114E-01 0.126E-01 -.541E-02
   0.102E+02 0.856E+02 -.965E+02   -.396E+02 -.809E+02 0.112E+03   0.192E+02 -.409E+01 -.106E+02   -.907E-02 0.376E-01 0.326E-01
   -.205E+02 0.147E+03 0.156E+03   0.248E+02 -.196E+03 -.173E+03   -.222E+01 0.343E+02 0.974E+01   -.107E-02 0.302E-01 0.311E-01
   -.969E+00 0.143E+03 0.175E+03   -.214E+01 -.192E+03 -.191E+03   0.145E+01 0.342E+02 0.981E+01   0.626E-02 0.214E-01 0.291E-01
   0.531E+02 -.753E+02 -.422E+03   -.909E+02 0.966E+02 0.452E+03   0.275E+02 -.147E+02 -.181E+02   0.130E-02 0.309E-01 0.156E-01
   -.202E+01 0.977E+02 -.136E+03   0.288E+02 -.940E+02 0.158E+03   -.177E+02 -.350E+01 -.143E+02   -.268E-01 0.833E-02 0.473E-02
   0.617E+02 0.224E+02 0.958E+02   -.689E+02 -.273E+02 -.961E+02   0.388E+01 0.279E+01 -.288E+00   -.278E-01 -.113E-01 -.122E-01
   0.180E+02 0.502E+02 0.190E+03   -.212E+02 -.525E+02 -.197E+03   0.207E+01 0.165E+01 0.402E+01   0.388E-01 -.105E-01 0.521E-03
   -.246E+03 -.133E+03 -.156E+03   0.290E+03 0.162E+03 0.159E+03   -.305E+02 -.183E+02 -.106E+01   -.211E-01 -.243E-01 -.487E-02
   0.193E+03 -.880E+02 0.249E+03   -.238E+03 0.102E+03 -.276E+03   0.319E+02 -.102E+02 0.167E+02   -.130E-01 -.218E-01 0.188E-01
   0.122E+02 0.208E+03 0.549E+03   -.652E+01 -.248E+03 -.586E+03   -.416E+01 0.293E+02 0.231E+02   -.306E-01 0.919E-02 0.106E-01
   0.296E+01 0.303E+03 0.457E+03   -.579E+01 -.354E+03 -.476E+03   0.598E+00 0.342E+02 0.109E+02   -.217E-02 0.250E-01 0.169E-01
   0.252E+03 -.427E+02 0.173E+03   -.299E+03 0.692E+02 -.183E+03   0.326E+02 -.177E+02 0.664E+01   -.713E-02 -.504E-02 0.273E-02
   -.184E+03 -.202E+03 -.371E+03   0.226E+03 0.227E+03 0.394E+03   -.300E+02 -.166E+02 -.136E+02   -.280E-01 -.238E-01 -.824E-02
   0.999E+00 -.415E+02 -.168E+02   -.879E+00 0.435E+02 0.132E+02   -.166E+00 -.115E+01 0.206E+01   0.840E-02 0.212E-02 0.138E-01
   -.198E+02 -.322E+02 -.241E+03   0.191E+02 0.353E+02 0.250E+03   0.178E+00 -.212E+01 -.549E+01   -.106E-01 0.179E-01 0.414E-02
   -.288E+03 -.839E+02 -.118E+03   0.334E+03 0.110E+03 0.120E+03   -.313E+02 -.184E+02 -.151E+01   -.131E-01 0.176E-01 0.634E-02
   0.227E+03 -.191E+03 0.387E+03   -.274E+03 0.214E+03 -.401E+03   0.310E+02 -.170E+02 0.652E+01   0.368E-01 -.215E-01 0.121E-01
   0.492E-01 0.191E+03 -.489E+03   0.653E+01 -.233E+03 0.524E+03   -.404E+01 0.290E+02 -.229E+02   0.164E-01 0.921E-03 -.161E-01
   -.449E+02 0.148E+03 -.549E+03   0.430E+02 -.185E+03 0.590E+03   0.990E+00 0.277E+02 -.265E+02   -.279E-01 0.739E-02 -.157E-01
   0.241E+03 -.165E+03 0.300E+03   -.278E+03 0.197E+03 -.320E+03   0.248E+02 -.225E+02 0.120E+02   0.158E-01 -.124E-01 0.890E-02
   -.215E+03 -.951E+02 -.235E+03   0.263E+03 0.108E+03 0.258E+03   -.323E+02 -.102E+02 -.142E+02   0.101E-01 -.134E-02 0.132E-02
   -.583E+02 0.260E+02 0.558E+02   0.633E+02 -.302E+02 -.602E+02   -.256E+01 0.215E+01 0.207E+01   0.266E-01 0.225E-01 0.104E-01
   0.591E+02 -.145E+03 -.127E+04   -.611E+02 0.170E+03 0.130E+04   0.153E+01 -.198E+02 -.278E+02   -.171E-01 0.932E-01 0.318E-01
   0.314E+01 -.460E+01 0.660E+01   0.497E-12 -.568E-13 0.000E+00   -.311E+01 0.460E+01 -.680E+01   -.294E-01 0.149E-01 0.200E+00

 POSITION                                       TOTAL-FORCE (eV/Angst)
     -0.01286      2.13021      5.50139        -0.019127      5.605963     -1.909439
      1.04972      3.96254      5.58774        -6.442735      0.638329     -0.020685
     -1.09641      3.92338      5.51201         6.275553      0.688770      0.688962
      4.94559      0.56870      6.52345         0.130459     -0.795404      1.141195
      2.99973      3.96147      5.32158        -0.495473      1.671065     -0.783091
      1.01987      0.51207      5.78799        -0.238604     -0.704381     -0.355945
     -3.09033      7.14449      6.24233         1.209282      4.426981      2.753902
     -1.91310      8.90550      6.46550        -4.275168     -3.943571      0.653838
     -4.02725      8.98760      6.42582         4.636435     -3.834608      1.135228
      2.06903      5.44096      6.47456        -1.246822     -1.109355      0.465472
      0.03389      8.83017      6.30771         0.164884     -0.587064     -1.223538
     -2.19230      5.43816      6.20066         1.091324     -1.651495      1.804667
      6.00845      2.14110      6.09789         0.270883      4.444149     -2.364840
      6.96934      3.79139      5.15849        -4.975814     -2.150781     -1.154702
      4.91948      3.86593      5.61745         5.172644     -3.637467     -0.874802
     10.87396      0.37189      5.94303         0.050576     -1.000349     -0.445989
      8.89870      3.73334      5.08105         1.220384      1.264981     -1.302473
      7.02408      0.55745      6.60521         0.243267     -0.390557      0.985054
      3.06725      7.05241      6.85311        -2.079609      5.329138      2.673716
      4.06225      8.89509      6.74515        -5.301836     -3.690719      2.729982
      1.94297      8.87650      6.72512         4.859053     -4.148267      1.897479
      7.82066      5.50699      5.42457         2.039564      1.553890     -0.332293
      5.99435      8.91281      6.89717         0.010729      0.224435      1.478838
      4.09518      5.47673      6.31920        -1.489270      0.297424      0.533188
     -0.01234      3.34659      5.48287         0.497897      1.016251     -1.219353
      1.00308      1.59199      5.43028        13.376476      7.906072     -6.415932
      3.99261     -0.03699      6.73583       -13.145254      7.474231      8.132463
      3.99452      3.46113      5.06178         2.042768    -12.541426    -12.392157
      1.95658      3.57178      5.02781        -0.548487    -10.346363    -13.501852
      4.96798      1.69463      6.36166       -13.212635     10.858832      1.982717
     -3.99278      9.91334      5.76187        13.180644      3.939657    -11.072186
      0.01447      0.01839      6.22866         0.260827     -0.183046      0.709939
     -2.98573      8.32938      6.45335         0.306798      0.388735      2.399672
     -2.24567      6.46804      6.67946         8.258190      6.360268     13.328679
      1.04925      4.88530      6.34100       -10.101956      0.649683      4.830487
      1.04163      8.27339      6.31743         2.053558    -15.058171     -6.440977
     -0.97137      8.28663      6.18392        -1.651616    -15.032249     -6.465127
      2.08351      6.43596      7.02836       -10.254573      6.639114     11.596621
     -1.19156      4.84120      6.25800         9.128498      0.201163      7.473096
      8.81492      4.82612      5.62424        -3.259555     -2.115141     -0.593408
      5.97991      3.21117      5.53820        -1.148082     -0.629328     -2.712576
      7.03238      1.67902      6.38857        13.581017     10.429306      1.314757
      3.97745      9.78362      6.03525       -13.764533      3.516035    -10.272943
     -1.94150      3.49934      4.88655         1.528019    -10.923665    -13.530352
      7.92178      3.18453      4.89592        -2.233048    -16.231346     -7.369749
     10.86306      1.45662      5.61319       -13.880279      8.799091     -3.306771
      7.93188     -0.05697      6.95930        12.033400      7.607633      9.502864
      5.98728     -0.04375      6.42819        -0.038092      0.873784     -1.567543
      3.00212      8.26130      6.89117        -0.545346      1.000074      3.285655
      4.07886      6.58287      6.61079        14.545733      8.131764      0.309776
      6.89057      4.95951      5.10513       -15.365158      5.675420     -7.425415
     -4.88897      8.57671      7.07794         2.560497    -12.196698     12.116842
      4.99383      8.50607      7.30204        -0.847608     -9.873471     14.322727
     -3.98103      6.81113      5.60576       -11.598231     10.144249     -7.667005
      5.02278      4.83170      6.24129        15.419977      2.362988      8.240938
      3.03298      4.96405      6.02638         2.492362     -1.958946     -2.326333
     -0.11519      5.91609      7.19555        -0.482789      4.614394      6.558722
    total drift:                               -0.002239      0.016142      0.001329

  FREE ENERGIE OF THE ION-ELECTRON SYSTEM (eV)
  free  energy   TOTEN  =      -372.72087756 eV

  energy  without entropy=     -372.72087756  energy(sigma->0) =     -372.72087756

 stress matrix after NEB project (eV)
    760.74663    -13.69914     20.92516
    -13.69914    682.37565     38.03315
     20.92516     38.03315    152.94727
  FORCES: max atom, RMS    17.984306   11.394532
  FORCE total and by dimension   86.026832   16.231346
  Stress total and by dimension 1035.330343  760.746626

 total charge

[...]

 magnetization (x)

# of ion       s       p       d       tot
    1       -0.000  -0.000   0.000  -0.000
    2       -0.000   0.000   0.000   0.000
    3       -0.000  -0.000   0.000  -0.000
    4        0.000  -0.000   0.000   0.000
    5        0.000   0.000   0.000   0.000
    6        0.000   0.000   0.000   0.000
    7       -0.000  -0.000   0.000  -0.000
    8        0.000   0.000   0.000   0.000
    9        0.000   0.000   0.000   0.000
   10       -0.000  -0.000   0.000  -0.000
   11        0.000   0.000   0.000   0.000
   12       -0.000  -0.000   0.000  -0.000
   13       -0.000  -0.000   0.000  -0.000
   14       -0.000  -0.000   0.000  -0.000
   15        0.000   0.000   0.000   0.000
   16        0.000   0.000   0.000   0.000
   17        0.000  -0.000   0.000  -0.000
   18        0.000   0.000   0.000   0.000
   19        0.000   0.000   0.000   0.000
   20        0.000   0.000   0.000   0.000
   21        0.000   0.000   0.000   0.000
   22       -0.000   0.000   0.000   0.000
   23        0.000   0.000   0.000   0.000
   24       -0.000  -0.000   0.000  -0.000
   25       -0.000  -0.000   0.000  -0.000
   26        0.000  -0.000   0.000  -0.000
   27        0.000  -0.000   0.000  -0.000
   28       -0.000  -0.000   0.000  -0.000
   29        0.000  -0.000   0.000  -0.000
   30        0.000   0.000   0.000   0.000
   31       -0.000  -0.000   0.000  -0.000
   32       -0.000  -0.000   0.000  -0.000
   33        0.000  -0.000   0.000  -0.000
   34        0.000   0.000   0.000   0.000
   35       -0.000  -0.000   0.000  -0.000
   36        0.000   0.000   0.000   0.000
   37       -0.000   0.000   0.000   0.000
   38       -0.000   0.000   0.000   0.000
   39        0.000   0.000   0.000   0.000
   40       -0.000  -0.000   0.000  -0.000
   41        0.000  -0.000   0.000  -0.000
   42        0.000   0.000   0.000   0.000
   43        0.000  -0.000   0.000  -0.000
   44        0.000  -0.000   0.000  -0.000
   45        0.000   0.000   0.000   0.000
   46       -0.000   0.000   0.000   0.000
   47        0.000  -0.000   0.000  -0.000
   48        0.000  -0.000   0.000  -0.000
   49        0.000  -0.000   0.000  -0.000
   50        0.000  -0.000   0.000  -0.000
   51        0.000   0.000   0.000   0.000
   52        0.000   0.000   0.000   0.000
   53        0.000  -0.000   0.000  -0.000
   54        0.000   0.000   0.000   0.000
   55       -0.000   0.000   0.000   0.000
   56       -0.000  -0.000   0.000  -0.000
   57       -0.000   0.000  -0.000  -0.000
tot          0.000  -0.000  -0.000  -0.000

 BZINTS: Fermi energy: -0.035259;270.000000 electrons
         Band energy:***********;  BLOECHL correction:  0.000000