 vasp.5.4.4.18Apr17-6-g9f103f2a35 (build Sep 02 2021 13:24:58) complex

 executed on             LinuxIFC date 2023.01.15  13:02:11

 INCAR:
 POTCAR:    PAW_PBE C 08Apr2002
 POTCAR:    PAW_PBE N 08Apr2002
 POTCAR:    PAW_PBE C 08Apr2002
 POTCAR:    PAW_PBE Cr_pv 02Aug2007
 POTCAR:    PAW_PBE C 08Apr2002
   VRHFIN =C: s2p2

   TITEL  = PAW_PBE C 08Apr2002
   POMASS =   12.011; ZVAL   =    4.000    mass and valenz
   ENMAX  =  400.000; ENMIN  =  300.000 eV

[...]

   TITEL  = PAW_PBE C 08Apr2002
   POMASS =   12.011; ZVAL   =    4.000    mass and valenz
   ENMAX  =  400.000; ENMIN  =  300.000 eV

   TITEL  = PAW_PBE Cr_pv 02Aug2007
   POMASS =   51.996; ZVAL   =   12.000    mass and valenz
   ENMAX  =  265.681; ENMIN  =  199.261 eV

 Optimization of the real space projectors (new method)

 maximal supplied QI-value         = 25.13
 optimisation between [QCUT,QGAM] = [ 11.81, 23.88] = [ 39.08,159.64] Ry
 Optimized for a Real-space Cutoff    1.18 Angstroem

   l    n(q)    QCUT    max X(q) W(low)/X(q) W(high)/X(q)  e(spline)
   0      8    11.813   115.676    0.10E-03    0.16E-03    0.35E-06
   0      8    11.813    87.132    0.10E-03    0.16E-03    0.35E-06
   1      8    11.813     4.429    0.16E-03    0.13E-04    0.22E-06
   1      8    11.813     2.733    0.13E-03    0.10E-04    0.18E-06
 Optimization of the real space projectors (new method)

[...]

   l    n(q)    QCUT    max X(q) W(low)/X(q) W(high)/X(q)  e(spline)
   0      8    11.813   115.676    0.10E-03    0.16E-03    0.35E-06
   0      8    11.813    87.132    0.10E-03    0.16E-03    0.35E-06
   1      8    11.813     4.429    0.16E-03    0.13E-04    0.22E-06
   1      8    11.813     2.733    0.13E-03    0.10E-04    0.18E-06
 Optimization of the real space projectors (new method)

 maximal supplied QI-value         = 16.25
 optimisation between [QCUT,QGAM] = [ 11.86, 23.89] = [ 39.41,159.82] Ry
 Optimized for a Real-space Cutoff    1.33 Angstroem

   l    n(q)    QCUT    max X(q) W(low)/X(q) W(high)/X(q)  e(spline)
   1      9    11.864     3.262    0.48E-04    0.16E-03    0.14E-06
   1      9    11.864     5.741    0.74E-04    0.40E-03    0.35E-06
   2      9    11.864    60.438    0.17E-03    0.21E-03    0.26E-06
   2      9    11.864    55.380    0.17E-03    0.21E-03    0.27E-06
   0      9    11.864    80.273    0.40E-04    0.47E-04    0.12E-06
   0      9    11.864    36.654    0.35E-04    0.41E-04    0.11E-06
  PAW_PBE C 08Apr2002                   :
  PAW_PBE N 08Apr2002                   :
  PAW_PBE C 08Apr2002                   :
  PAW_PBE Cr_pv 02Aug2007               :

 POSCAR: POSCAR-clean
  positions in cartesian coordinates
 exchange correlation table for  LEXCH =        8
   RHO(1)=    0.500       N(1)  =     2000
   RHO(2)=  100.500       N(2)  =     4000

 ion  position               nearest neighbor table
   1  0.000  1.000  0.498-   2 1.42  60 1.42  70 1.43
   2  0.056  0.111  0.498-   1 1.42  13 1.42  15 1.43
   3  0.168  0.002  0.498-   4 1.42  62 1.43  60 1.43
   4  0.224  0.113  0.498-   3 1.42  15 1.42  17 1.44
   5  0.334  0.002  0.498-   6 1.42  62 1.43  64 1.43
   6  0.390  0.113  0.498-   5 1.42  19 1.42  17 1.44
   7  0.500  1.000  0.498-   8 1.42  64 1.42  66 1.43
   8  0.556  0.111  0.498-   7 1.42  21 1.42  19 1.43
   9  0.666  0.998  0.498-  10 1.42  66 1.42  68 1.44
  10  0.722  0.109  0.498-   9 1.42  23 1.43  21 1.43
  11  0.832  0.998  0.498-  12 1.42  70 1.42  68 1.44
  12  0.888  0.109  0.498-  11 1.42  23 1.43  13 1.43
  13  0.999  0.165  0.498-  14 1.42   2 1.42  12 1.43
  14  0.054  0.277  0.499-  13 1.42  25 1.42  27 1.43
  15  0.167  0.168  0.498-  16 1.42   4 1.42   2 1.43
  16  0.223  0.280  0.500-  15 1.42  27 1.43  29 1.44
  17  0.335  0.170  0.499-  18 1.42   4 1.44   6 1.44
  18  0.391  0.281  0.503-  17 1.42  31 1.44  29 1.44
  19  0.501  0.168  0.498-  20 1.42   6 1.42   8 1.43
  20  0.557  0.280  0.500-  19 1.42  33 1.43  31 1.44
  21  0.667  0.165  0.498-  22 1.42   8 1.42  10 1.43
  22  0.723  0.277  0.498-  21 1.42  35 1.42  33 1.43
  23  0.833  0.165  0.498-  24 1.42  10 1.43  12 1.43
  24  0.888  0.276  0.498-  23 1.42  25 1.42  35 1.43
  25  0.999  0.332  0.498-  14 1.42  26 1.42  24 1.42
  26  0.054  0.444  0.499-  39 1.42  37 1.42  25 1.42
  27  0.165  0.333  0.500-  28 1.42  16 1.43  14 1.43
  28  0.219  0.444  0.502-  41 1.41  27 1.42  39 1.42
  29  0.335  0.338  0.503-  30 1.41  18 1.44  16 1.44
  30  0.387  0.448  0.510-  41 1.41  29 1.41  71 2.00
  31  0.503  0.338  0.504-  32 1.41  18 1.44  20 1.44
  32  0.562  0.448  0.510-  43 1.41  31 1.41  71 2.00
  33  0.668  0.333  0.500-  34 1.42  20 1.43  22 1.43
  34  0.725  0.444  0.501-  43 1.41  33 1.42  45 1.42
  35  0.833  0.332  0.498-  22 1.42  36 1.42  24 1.43
  36  0.890  0.444  0.498-  45 1.42  37 1.42  35 1.42
  37  0.000  0.500  0.498-  36 1.42  26 1.42  38 1.42
  38  0.056  0.611  0.498-  47 1.42  49 1.42  37 1.42
  39  0.165  0.500  0.500-  26 1.42  28 1.42  40 1.42
  40  0.220  0.611  0.500-  49 1.42  51 1.42  39 1.42
  41  0.329  0.499  0.505-  30 1.41  28 1.41  42 1.44
  42  0.385  0.612  0.505-  53 1.41  51 1.41  41 1.44
  43  0.671  0.499  0.505-  32 1.41  34 1.41  44 1.44
  44  0.727  0.612  0.505-  55 1.41  57 1.41  43 1.44
  45  0.836  0.500  0.499-  36 1.42  34 1.42  46 1.42
  46  0.891  0.611  0.499-  47 1.42  57 1.42  45 1.42
  47  0.001  0.667  0.498-  46 1.42  38 1.42  48 1.42
  48  0.057  0.779  0.498-  59 1.42  47 1.42  61 1.43
  49  0.166  0.667  0.499-  40 1.42  38 1.42  50 1.42
  50  0.222  0.779  0.498-  63 1.42  49 1.42  61 1.42
  51  0.331  0.667  0.502-  42 1.41  52 1.42  40 1.42
  52  0.388  0.778  0.500-  51 1.42  65 1.43  63 1.43
  53  0.494  0.663  0.510-  42 1.41  54 1.41  71 2.00
  54  0.553  0.773  0.503-  53 1.41  67 1.44  65 1.44
  55  0.669  0.663  0.510-  44 1.41  56 1.41  71 2.00
  56  0.721  0.773  0.504-  55 1.41  67 1.44  69 1.44
  57  0.837  0.667  0.501-  44 1.41  58 1.42  46 1.42
  58  0.891  0.778  0.500-  57 1.42  69 1.42  59 1.43
  59  0.002  0.835  0.498-  60 1.42  48 1.42  58 1.43
  60  0.057  0.946  0.498-  59 1.42   1 1.42   3 1.43
  61  0.168  0.835  0.498-  62 1.42  50 1.42  48 1.43
  62  0.223  0.946  0.498-  61 1.42   3 1.43   5 1.43
  63  0.333  0.835  0.499-  64 1.42  50 1.42  52 1.43
  64  0.389  0.946  0.498-  63 1.42   7 1.42   5 1.43
  65  0.499  0.832  0.500-  66 1.42  52 1.43  54 1.44
  66  0.555  0.943  0.498-  65 1.42   9 1.42   7 1.43
  67  0.665  0.830  0.503-  68 1.42  56 1.44  54 1.44
  68  0.721  0.941  0.499-  67 1.42   9 1.44  11 1.44
  69  0.833  0.832  0.500-  70 1.42  58 1.42  56 1.44
  70  0.889  0.943  0.498-  69 1.42  11 1.42   1 1.43
  71  0.528  0.556  0.554-  55 2.00  32 2.00  53 2.00  30 2.00

IMPORTANT INFORMATION: All symmetrisations will be switched off!
NOSYMM: (Re-)initialisation of all symmetry stuff for point group C_1.

 KPOINTS: K-Points

Automatic generation of k-mesh.
Space group operators:
 irot       det(A)        alpha          n_x          n_y          n_z        tau_x        tau_y        tau_z
    1     1.000000     0.000000     1.000000     0.000000     0.000000     0.000000     0.000000     0.000000

 Subroutine IBZKPT returns following result:

 Found      4 irreducible k-points:

 Following reciprocal coordinates:
            Coordinates               Weight
  0.000000  0.000000  0.000000      1.000000
  0.500000  0.000000  0.000000      1.000000
 -0.000000  0.500000  0.000000      1.000000
  0.500000  0.500000  0.000000      1.000000

 Following cartesian coordinates:
            Coordinates               Weight
  0.000000  0.000000  0.000000      1.000000
  0.033606  0.019589  0.000000      1.000000
 -0.000000  0.039178  0.000000      1.000000
  0.033606  0.058767  0.000000      1.000000

 SYSTEM =  unknown system
 POSCAR =  POSCAR-clean

 Startparameter for this run:
   NWRITE =      2    write-flag & timer
   PREC   = accura    normal or accurate (medium, high low for compatibility)
   ISTART =      0    job   : 0-new  1-cont  2-samecut
   ICHARG =      2    charge: 1-file 2-atom 10-const
   ISPIN  =      2    spin polarized calculation?
   LNONCOLLINEAR =      F non collinear calculations
   LSORBIT =      F    spin-orbit coupling
   INIWAV =      1    electr: 0-lowe 1-rand  2-diag
   LASPH  =      F    aspherical Exc in radial PAW
   METAGGA=      F    non-selfconsistent MetaGGA calc.

 Electronic Relaxation 1
   ENCUT  =  550.0 eV  40.42 Ry    6.36 a.u.  28.45 28.25 28.68*2*pi/ulx,y,z
   ENINI  =  550.0     initial cutoff
   ENAUG  =  644.9 eV  augmentation charge cutoff
   NELM   =     50;   NELMIN=  2; NELMDL= -5     # of ELM steps
   EDIFF  = 0.1E-04   stopping-criterion for ELM
   LREAL  =      T    real-space projection
   NLSPLINE    = F    spline interpolate recip. space projectors
   LCOMPAT=      F    compatible to vasp.4.4
   GGA_COMPAT  = T    GGA compatible to vasp.4.4-vasp.4.6
   LMAXPAW     = -100 max onsite density
   LMAXMIX     =    2 max onsite mixed and CHGCAR
   VOSKOWN=      0    Vosko Wilk Nusair interpolation
   ROPT   =   -0.00025  -0.00025  -0.00025  -0.00025
 Ionic relaxation
   EDIFFG = -.5E-01   stopping-criterion for IOM
   NSW    =    400    number of steps for IOM
   NBLOCK =      1;   KBLOCK =    400    inner block; outer block
   IBRION =      2    ionic relax: 0-MD 1-quasi-New 2-CG
   NFREE  =      1    steps in history (QN), initial steepest desc. (CG)
   ISIF   =      3    stress and relaxation
   IWAVPR =     11    prediction:  0-non 1-charg 2-wave 3-comb
   ISYM   =      0    0-nonsym 1-usesym 2-fastsym
   LCORR  =      T    Harris-Foulkes like correction to forces

   POTIM  = 0.3000    time-step for ionic-motion
   TEIN   =    0.0    initial temperature
   TEBEG  =    0.0;   TEEND  =   0.0 temperature during run
   SMASS  =  -3.00    Nose mass-parameter (am)
   estimated Nose-frequenzy (Omega)   =  0.10E-29 period in steps =****** mass=  -0.506E-26a.u.
   SCALEE = 1.0000    scale energy and forces
   NPACO  =    256;   APACO  = 16.0  distance and # of slots for P.C.
   PSTRESS=    0.0 pullay stress

  Mass of Ions in am
   POMASS =  12.01 14.00 12.01 52.00
  Ionic Valenz
   ZVAL   =   4.00  5.00  4.00 12.00
  Atomic Wigner-Seitz radii
  virtual crystal weights
   VCA    =   1.00  1.00  1.00  1.00
   NELECT =     293.0000    total number of electrons
   NUPDOWN=      -1.0000    fix difference up-down

 DOS related values:
   EMIN   =  10.00;   EMAX   =-10.00  energy-range for DOS
   EFERMI =   0.00
   ISMEAR =     0;   SIGMA  =   0.10  broadening in eV -4-tet -1-fermi 0-gaus

 Electronic relaxation 2 (details)
   IALGO  =     68    algorithm
   LDIAG  =      T    sub-space diagonalisation (order eigenvalues)
   LSUBROT=      F    optimize rotation matrix (better conditioning)
   TURBO    =      0    0=normal 1=particle mesh
   IRESTART =      0    0=no restart 2=restart with 2 vectors
   NREBOOT  =      0    no. of reboots
   NMIN     =      0    reboot dimension
   EREF     =   0.00    reference energy to select bands
   IMIX   =      4    mixing-type and parameters
     AMIX     =   0.40;   BMIX     =  1.00
     AMIX_MAG =   1.60;   BMIX_MAG =  1.00
     AMIN     =   0.10
     WC   =   100.;   INIMIX=   1;  MIXPRE=   1;  MAXMIX= -45

 Intra band minimization:
[...]
    -7.426535890 12.741655181  0.000000000    -0.000124170  0.078410366  0.000000000
     0.000000000  0.000000000 15.000000000     0.000000000  0.000000000  0.066666667

  length of vectors
    14.853090404 14.747990103 15.000000000     0.077855633  0.078410464  0.066666667

 FORCES acting on ions
    electron-ion (+dipol)            ewald-force                    non-local-force                 convergence-correction
   0.321E+01 0.135E+01 0.790E+01   -.337E+01 -.160E+01 -.793E+01   0.163E+00 0.260E+00 0.261E-01   -.814E-03 -.803E-03 -.284E-03
   -.311E+00 0.364E+01 0.805E+01   -.152E+00 -.395E+01 -.808E+01   0.458E+00 0.298E+00 0.285E-01   -.593E-03 0.450E-03 -.521E-03
   0.173E+00 0.455E+01 0.724E+01   -.146E+00 -.490E+01 -.726E+01   -.159E-01 0.332E+00 0.262E-01   0.635E-03 -.121E-02 -.216E-04
   -.203E+01 0.966E+01 0.714E+01   0.216E+01 -.104E+02 -.716E+01   -.108E+00 0.664E+00 0.161E-01   0.262E-03 -.349E-03 0.119E-03
   -.287E+01 0.136E+01 0.697E+01   0.295E+01 -.143E+01 -.699E+01   -.803E-01 0.767E-01 0.260E-01   0.393E-03 -.121E-02 -.983E-04
   -.116E+01 0.419E+01 0.672E+01   0.166E+01 -.440E+01 -.673E+01   -.485E+00 0.210E+00 0.876E-02   0.323E-03 -.738E-03 0.837E-04
   -.238E+01 -.651E-01 0.754E+01   0.248E+01 0.103E-01 -.755E+01   -.111E+00 0.598E-01 0.173E-01   0.212E-02 -.131E-02 0.358E-03
   0.157E+01 0.873E+00 0.779E+01   -.153E+01 -.882E+00 -.782E+01   -.652E-01 0.429E-02 0.316E-01   0.203E-02 -.968E-03 0.358E-03
   -.898E+00 -.798E+00 0.747E+01   0.966E+00 0.703E+00 -.749E+01   -.499E-01 0.111E+00 0.163E-01   -.564E-03 -.517E-03 -.721E-04
   0.825E+00 -.797E+00 0.764E+01   -.831E+00 0.656E+00 -.766E+01   0.130E-01 0.145E+00 0.294E-01   0.107E-03 -.131E-02 -.142E-03
   0.271E+01 0.618E-01 0.690E+01   -.282E+01 -.222E+00 -.690E+01   0.104E+00 0.164E+00 0.675E-03   -.284E-02 -.268E-03 -.279E-03
   0.816E+00 -.677E+00 0.668E+01   -.983E+00 0.483E+00 -.670E+01   0.178E+00 0.206E+00 0.218E-01   -.225E-02 -.715E-03 -.480E-03
   0.636E+01 0.603E+01 0.681E+01   -.663E+01 -.620E+01 -.682E+01   0.251E+00 0.184E+00 0.383E-02   -.894E-03 0.164E-03 -.725E-03
   0.627E+01 0.233E+01 0.620E+01   -.678E+01 -.264E+01 -.622E+01   0.509E+00 0.292E+00 0.975E-02   -.567E-03 -.443E-03 -.912E-03
   0.842E+01 0.149E+02 0.990E+01   -.863E+01 -.161E+02 -.992E+01   0.195E+00 0.120E+01 0.142E-01   -.679E-03 0.385E-03 -.137E-03
   0.215E+02 0.202E+02 0.133E+02   -.261E+02 -.230E+02 -.135E+02   0.465E+01 0.285E+01 0.245E+00   -.710E-03 0.372E-03 0.541E-03
   -.813E+01 0.136E+02 0.693E+01   0.844E+01 -.145E+02 -.696E+01   -.313E+00 0.848E+00 0.316E-01   0.697E-03 -.245E-03 0.280E-03
   -.264E+02 0.226E+02 0.727E+01   0.318E+02 -.248E+02 -.710E+01   -.539E+01 0.215E+01 -.170E+00   0.460E-03 0.149E-02 0.472E-03
   -.565E+01 0.657E+01 0.756E+01   0.584E+01 -.650E+01 -.757E+01   -.183E+00 -.731E-01 0.998E-03   0.925E-03 -.812E-03 -.204E-04
   -.599E+00 0.601E+01 0.913E+01   0.531E+00 -.597E+01 -.923E+01   0.663E-01 -.408E-01 0.820E-01   -.110E-03 0.280E-03 -.896E-03
   -.250E+01 0.443E+01 0.795E+01   0.255E+01 -.446E+01 -.796E+01   -.541E-01 0.572E-01 0.129E-01   0.134E-02 -.217E-02 0.164E-03
   -.248E+01 0.228E+01 0.758E+01   0.247E+01 -.234E+01 -.761E+01   -.900E-03 0.602E-01 0.267E-01   0.110E-02 -.859E-03 0.112E-03
   0.125E+01 0.226E+01 0.618E+01   -.133E+01 -.231E+01 -.616E+01   0.801E-01 0.672E-01 -.161E-01   -.174E-02 -.142E-02 -.472E-03
   0.663E+00 0.196E+01 0.626E+01   -.762E+00 -.203E+01 -.629E+01   0.130E+00 0.582E-01 0.267E-01   -.978E-03 -.522E-03 -.570E-03
   0.394E+01 0.446E+01 0.525E+01   -.414E+01 -.445E+01 -.523E+01   0.202E+00 -.303E-02 -.263E-01   -.119E-02 -.195E-03 -.101E-02
   0.494E+01 0.257E+01 0.613E+01   -.503E+01 -.260E+01 -.617E+01   0.113E+00 -.338E-02 0.265E-01   -.160E-02 0.265E-03 -.995E-03
   0.158E+02 0.105E+02 0.817E+01   -.169E+02 -.101E+02 -.811E+01   0.109E+01 -.379E+00 -.509E-01   0.130E-03 -.834E-03 -.120E-03
   0.195E+02 0.208E+01 0.890E+01   -.198E+02 -.146E+01 -.905E+01   0.293E+00 -.631E+00 0.157E+00   0.754E-04 0.148E-02 0.738E-03
   0.605E+00 0.233E+02 0.143E+02   -.237E+00 -.218E+02 -.149E+02   -.374E+00 -.146E+01 0.540E+00   0.104E-02 0.185E-02 0.324E-02
   -.537E+01 0.629E+01 0.932E+01   0.129E+02 0.395E+01 -.717E+01   -.756E+01 -.102E+02 -.214E+01   0.134E-02 0.165E-02 0.365E-02
   -.123E+02 0.199E+02 0.136E+02   0.132E+02 -.183E+02 -.139E+02   -.874E+00 -.162E+01 0.268E+00   -.746E-03 0.968E-03 -.124E-02
   -.318E+01 0.325E+02 0.338E+02   -.264E+01 -.283E+02 -.331E+02   0.587E+01 -.419E+01 -.713E+00   -.254E-02 0.199E-02 -.114E-02
   -.573E+01 0.109E+02 0.722E+01   0.567E+01 -.109E+02 -.720E+01   0.548E-01 0.771E-02 -.344E-01   0.514E-03 -.323E-03 -.436E-03
   -.144E+02 0.723E+01 0.731E+01   0.143E+02 -.710E+01 -.741E+01   0.176E+00 -.146E+00 0.965E-01   0.704E-03 0.138E-02 -.576E-03
   -.479E+00 0.433E+01 0.677E+01   0.406E+00 -.435E+01 -.676E+01   0.640E-01 0.292E-01 -.654E-02   0.906E-03 -.110E-03 -.194E-04
   -.335E+01 0.345E+01 0.703E+01   0.328E+01 -.350E+01 -.707E+01   0.634E-01 0.544E-01 0.390E-01   0.774E-03 0.554E-03 0.198E-03
   0.109E+01 0.103E-01 0.654E+01   -.120E+01 0.236E-01 -.654E+01   0.105E+00 -.174E-01 0.308E-02   -.862E-03 0.322E-03 -.550E-03
   -.233E+00 -.662E+00 0.755E+01   0.205E+00 0.656E+00 -.758E+01   0.297E-01 -.160E-01 0.395E-01   -.128E-02 0.135E-02 -.353E-03
   0.935E+01 -.129E+01 0.512E+01   -.966E+01 0.152E+01 -.509E+01   0.283E+00 -.202E+00 -.320E-01   0.130E-03 0.773E-03 -.209E-03
   0.680E+01 -.302E+01 0.274E+01   -.676E+01 0.315E+01 -.266E+01   -.258E-01 -.146E+00 -.883E-01   -.300E-04 0.706E-03 0.325E-03
   0.292E+02 -.185E+01 0.149E+02   -.291E+02 0.213E+01 -.157E+02   -.147E+00 -.290E+00 0.755E+00   0.101E-02 0.181E-02 0.245E-02
   0.283E+02 -.130E+02 0.140E+02   -.274E+02 0.140E+02 -.147E+02   -.820E+00 -.948E+00 0.746E+00   0.767E-03 0.575E-03 0.892E-03
   -.270E+02 0.973E+01 0.169E+02   0.263E+02 -.100E+02 -.174E+02   0.671E+00 0.288E+00 0.577E+00   -.604E-03 0.134E-02 -.130E-02
   -.266E+02 -.113E+02 0.124E+02   0.257E+02 0.118E+02 -.130E+02   0.893E+00 -.507E+00 0.651E+00   -.195E-03 0.350E-03 0.726E-03
   -.586E+01 0.160E+01 0.538E+01   0.581E+01 -.159E+01 -.534E+01   0.429E-01 0.875E-02 -.347E-01   0.778E-03 0.139E-02 0.619E-03
   -.662E+01 -.138E+01 0.539E+01   0.651E+01 0.137E+01 -.533E+01   0.741E-01 0.155E-01 -.590E-01   0.113E-02 0.775E-03 0.101E-02
   -.297E+01 -.360E+01 0.818E+01   0.293E+01 0.359E+01 -.823E+01   0.532E-01 0.115E-01 0.495E-01   0.501E-03 0.449E-03 0.243E-03
   -.161E+01 -.276E+01 0.692E+01   0.155E+01 0.276E+01 -.690E+01   0.537E-01 0.253E-01 -.255E-01   0.122E-02 -.215E-02 0.362E-04
   0.362E+01 -.403E+01 0.634E+01   -.364E+01 0.410E+01 -.638E+01   0.206E-01 -.719E-01 0.413E-01   -.143E-02 0.112E-02 -.135E-03
   0.146E+01 -.326E+01 0.583E+01   -.139E+01 0.330E+01 -.580E+01   -.793E-01 -.433E-01 -.208E-01   -.861E-03 -.320E-03 -.144E-03
   0.116E+02 -.873E+01 0.211E+01   -.114E+02 0.879E+01 -.215E+01   -.216E+00 -.478E-01 0.351E-01   0.116E-02 -.116E-03 0.786E-03
   0.525E+01 -.101E+02 0.546E+01   -.503E+01 0.102E+02 -.545E+01   -.204E+00 -.129E+00 -.271E-01   0.925E-03 0.151E-02 0.501E-03
   -.580E+01 -.394E+02 0.357E+02   0.119E+02 0.363E+02 -.352E+02   -.618E+01 0.315E+01 -.534E+00   0.991E-03 0.427E-03 -.356E-03
   0.772E+00 -.193E+02 0.145E+02   -.487E+00 0.185E+02 -.147E+02   -.308E+00 0.827E+00 0.186E+00   0.242E-03 0.834E-03 -.112E-02
   0.592E+01 -.364E+02 0.200E+02   -.120E+02 0.329E+02 -.189E+02   0.615E+01 0.350E+01 -.107E+01   -.157E-02 -.140E-03 0.222E-02
   -.532E+00 -.191E+02 0.114E+02   0.262E+00 0.181E+02 -.116E+02   0.272E+00 0.986E+00 0.201E+00   -.951E-03 0.192E-03 0.814E-03
   -.126E+02 -.703E+01 0.443E+01   0.124E+02 0.696E+01 -.454E+01   0.245E+00 0.635E-01 0.113E+00   0.902E-03 0.355E-03 0.121E-02
   -.507E+01 -.933E+01 0.693E+01   0.482E+01 0.934E+01 -.688E+01   0.268E+00 -.354E-01 -.431E-01   -.559E-04 -.687E-03 0.107E-02
   -.234E+01 -.164E+01 0.795E+01   0.224E+01 0.157E+01 -.797E+01   0.118E+00 0.595E-01 0.270E-01   0.608E-04 -.138E-02 0.528E-03
   -.178E+01 -.207E+01 0.807E+01   0.173E+01 0.197E+01 -.808E+01   0.593E-01 0.116E+00 0.158E-01   0.320E-03 -.159E-02 0.682E-04
   -.520E+00 -.149E+01 0.655E+01   0.542E+00 0.144E+01 -.658E+01   -.125E-01 0.411E-01 0.248E-01   0.283E-03 -.158E-02 -.397E-03
   -.106E+01 0.508E+00 0.604E+01   0.113E+01 -.577E+00 -.602E+01   -.908E-01 0.794E-01 -.245E-01   0.863E-03 -.155E-02 -.258E-03
   0.871E+00 -.334E+01 0.655E+01   -.785E+00 0.336E+01 -.658E+01   -.700E-01 -.186E-01 0.288E-01   0.357E-03 0.264E-03 0.329E-03
   0.153E+01 -.315E+01 0.737E+01   -.146E+01 0.312E+01 -.739E+01   -.724E-01 0.419E-01 0.172E-01   0.118E-02 -.973E-03 0.154E-03
   -.129E+01 -.818E+01 0.100E+02   0.175E+01 0.799E+01 -.101E+02   -.475E+00 0.201E+00 0.984E-01   0.138E-02 0.133E-02 -.350E-03
   0.247E+01 -.451E+01 0.825E+01   -.239E+01 0.437E+01 -.828E+01   -.899E-01 0.128E+00 0.261E-01   0.141E-02 -.617E-04 0.718E-04
   0.749E+00 -.923E+01 0.591E+01   -.707E+00 0.864E+01 -.554E+01   -.508E-01 0.626E+00 -.384E+00   -.150E-02 -.556E-04 -.525E-03
   0.359E+00 -.636E+01 0.673E+01   -.403E+00 0.596E+01 -.676E+01   0.484E-01 0.386E+00 0.181E-01   -.178E-02 0.363E-03 -.317E-03
   0.247E+01 -.709E+01 0.108E+02   -.295E+01 0.681E+01 -.109E+02   0.495E+00 0.301E+00 0.112E+00   -.644E-03 -.843E-03 0.497E-03
   -.147E+01 -.425E+01 0.884E+01   0.133E+01 0.402E+01 -.887E+01   0.147E+00 0.253E+00 0.338E-01   -.956E-03 -.127E-02 -.183E-03
   -.598E+01 -.190E+02 -.641E+03   0.694E+01 0.192E+02 0.623E+03   -.977E+00 -.160E+00 0.177E+02   0.467E-02 -.144E-02 -.953E-03
   0.738E+00 -.600E-01 -.178E+02   0.163E-12 0.171E-11 -.455E-12   -.742E+00 0.790E-01 0.178E+02   0.462E-02 -.198E-02 0.655E-02

 POSITION                                       TOTAL-FORCE (eV/Angst)
      0.00371      0.00113      7.46423         0.003060      0.002837     -0.004434
      0.00264      1.42518      7.46465        -0.006533     -0.016139     -0.006437
      2.48104      0.02856      7.46365         0.012362     -0.019047     -0.001189
      2.47918      1.44562      7.47528         0.020941     -0.031454      0.000326
      4.94754      0.03651      7.46544        -0.003781      0.008134     -0.000954
      4.94395      1.46141      7.47700         0.021635      0.003004      0.000732
      7.42647      0.01158      7.46639        -0.003244      0.004188      0.006381
      7.42310      1.43616      7.46540        -0.027553     -0.006523      0.005492
      2.47758     12.73200      7.47399         0.017949      0.013348     -0.000962
      9.90356      1.41080      7.46239         0.006922      0.000813      0.001163
      4.95166     12.73660      7.47549        -0.009883      0.002563     -0.000790
     12.37574      1.41372      7.46546         0.008964      0.010337      0.000229
     13.61316      2.13388      7.46680        -0.018056      0.015876     -0.006734
     -1.23911      3.52597      7.47695        -0.006628     -0.020975     -0.011434
      1.24442      2.14930      7.47362        -0.008175      0.001260     -0.000766
      1.24145      3.56440      7.49758         0.005314     -0.013325      0.007951
      3.70205      2.18229      7.49282        -0.001816      0.006297      0.002391
      3.69435      3.60435      7.53654        -0.012920     -0.019365     -0.000244
      6.18326      2.16207      7.47838        -0.001031     -0.007117     -0.005184
      6.17503      3.58405      7.50141        -0.002291     -0.007700     -0.011189
      8.66617      2.12839      7.46276        -0.000211      0.027481      0.005665
      8.66749      3.54632      7.47146        -0.014251     -0.003681      0.004065
     11.13938      2.12264      7.46340         0.004549      0.013260     -0.002304
     11.14031      3.54401      7.46534         0.030464     -0.006116     -0.003360
     12.37544      4.25770      7.47382         0.000735      0.001466     -0.011431
     -2.48380      5.65447      7.47932         0.014762     -0.025746     -0.009400
     -0.00447      4.24471      7.49725        -0.018232      0.018088      0.004686
     -0.03557      5.65952      7.51990        -0.000211     -0.007718      0.008456
      2.46133      4.29961      7.55643         0.003227     -0.008448      0.013376
      2.43481      5.68986      7.67369        -0.007589     -0.008149      0.016144
      4.92755      4.33663      7.54712        -0.004783     -0.012076     -0.001038
      4.98520      5.75085      7.62621         0.029548      0.003155     -0.007746
      7.43153      4.26125      7.49608        -0.000318      0.002963     -0.011434
      7.46289      5.67826      7.51796        -0.017804     -0.019774     -0.009929
      9.90681      4.25500      7.46844        -0.007872      0.004442      0.004658
      9.91592      5.67593      7.47495        -0.002025      0.006489      0.005104
     -3.70994      6.36744      7.47294        -0.004897      0.015241     -0.005113
     -3.70680      7.78959      7.47086         0.001204     -0.018569      0.001829
     -1.26031      6.36958      7.50187        -0.028850      0.021228      0.002658
     -1.25634      7.79093      7.50823         0.013416     -0.015206     -0.006786
      1.18971      6.34778      7.58034        -0.015186     -0.023873      0.012027
      1.20004      7.78697      7.57944         0.019268      0.010801      0.015764
      6.24722      6.38644      7.56813         0.017470      0.000351     -0.006151
      6.25107      7.81579      7.58037         0.006617     -0.011013      0.005653
      8.69399      6.39020      7.49690        -0.003897      0.019068      0.004919
      8.69749      7.80966      7.49781        -0.024753      0.001696      0.005681
     -4.93289      8.50250      7.47248         0.007776      0.006655      0.002766
     -4.93922      9.92487      7.46784        -0.008904      0.018581     -0.000379
     -2.47928      8.50472      7.47972         0.004211      0.001144     -0.000175
     -2.47521      9.92722      7.47310        -0.001449     -0.002839      0.003150
     -0.02501      8.49911      7.53535        -0.017867      0.010544     -0.001944
     -0.00743      9.91884      7.50468         0.016322     -0.014729     -0.007360
      2.44623      8.44631      7.62202        -0.011338      0.013752     -0.001487
      2.48046      9.86230      7.54337        -0.011978     -0.005080     -0.005933
      4.99927      8.46039      7.65398         0.008159      0.008803      0.014081
      4.95880      9.87194      7.55360        -0.012134      0.013087      0.012525
      7.47014      8.52344      7.52648         0.010590     -0.011109      0.004330
      7.44604      9.93971      7.49818         0.014117     -0.012396      0.005629
     -6.17571     10.63325      7.47108         0.017381     -0.013442      0.004545
     -6.18075     12.05021      7.46248         0.008731      0.010258      0.002498
     -3.70826     10.63948      7.46475         0.009756     -0.006344     -0.005075
     -3.70921     12.06162      7.46401        -0.012275      0.009575     -0.005560
     -1.24171     10.63676      7.47755         0.017165      0.007508      0.004584
     -1.24171     12.05757      7.46630         0.001210      0.014732      0.004711
      1.24112     10.60354      7.50077        -0.016224      0.005669     -0.006834
      1.23820     12.02918      7.47652        -0.000781     -0.018013     -0.001843
      3.71807     10.59073      7.53646        -0.010676      0.021190     -0.009699
      3.71497     12.01059      7.49178         0.002123     -0.012928     -0.007625
      6.19597     10.61643      7.49907         0.005703      0.016409      0.006554
      6.19378     12.03972      7.47474        -0.002610      0.023194     -0.003326
      3.70922      7.08827      8.32905        -0.002624      0.003409     -0.018475
    total drift:                                0.000927      0.017018     -0.024847

  FREE ENERGIE OF THE ION-ELECTRON SYSTEM (eV)
  free  energy   TOTEN  =      -653.65112088 eV

  energy  without entropy=     -653.62113839  energy(sigma->0) =     -653.63612963

 d Force = 0.7923825E-03[ 0.254E-04, 0.156E-02]  d Energy = 0.8053146E-03-0.129E-04
 d Force = 0.6094273E+00[ 0.615E+00, 0.604E+00]  d Ewald  =-0.6430698E+01 0.704E+01

 Conjugate gradient step on ions:
 trial-energy change:   -0.000805  1 .order   -0.000809   -0.001612   -0.000006
  (g-gl).g = 0.167E-02      g.g   = 0.168E-02  gl.gl    = 0.216E-02
 g(Force)  = 0.160E-02   g(Stress)= 0.796E-04 ortho     = 0.201E-04
 gamma     =   0.77390
 trial     =   0.95097
 opt step  =   0.95463  (harmonic =   0.95463) maximal distance =0.00331816
 next E    =  -653.651125   (d E  =  -0.00081)

 reached required accuracy - stopping structural energy minimisation