 vasp.5.4.4.18Apr17-6-g9f103f2a35 (build Jan 14 2022 15:04:31) complex

 executed on             LinuxIFC date 2023.01.23  17:52:23

 INCAR:
 POTCAR:    PAW_PBE C 08Apr2002
 POTCAR:    PAW_PBE N 08Apr2002
 POTCAR:    PAW_PBE C 08Apr2002
 POTCAR:    PAW_PBE Cr_pv 02Aug2007
 POTCAR:    PAW_PBE C 08Apr2002
   VRHFIN =C: s2p2

   TITEL  = PAW_PBE C 08Apr2002
   POMASS =   12.011; ZVAL   =    4.000    mass and valenz
   ENMAX  =  400.000; ENMIN  =  300.000 eV

[...]

   TITEL  = PAW_PBE C 08Apr2002
   POMASS =   12.011; ZVAL   =    4.000    mass and valenz
   ENMAX  =  400.000; ENMIN  =  300.000 eV

   TITEL  = PAW_PBE Cr_pv 02Aug2007
   POMASS =   51.996; ZVAL   =   12.000    mass and valenz
   ENMAX  =  265.681; ENMIN  =  199.261 eV

 Optimization of the real space projectors (new method)

 maximal supplied QI-value         = 25.13
 optimisation between [QCUT,QGAM] = [ 10.56, 21.36] = [ 31.20,127.80] Ry
 Optimized for a Real-space Cutoff    1.32 Angstroem

   l    n(q)    QCUT    max X(q) W(low)/X(q) W(high)/X(q)  e(spline)
   0      8    10.556   115.676    0.17E-03    0.39E-03    0.26E-06
   0      8    10.556    87.132    0.17E-03    0.39E-03    0.26E-06
   1      8    10.556     4.429    0.24E-03    0.31E-03    0.16E-06
   1      8    10.556     2.733    0.17E-03    0.22E-03    0.19E-06
 Optimization of the real space projectors (new method)

[...]

   l    n(q)    QCUT    max X(q) W(low)/X(q) W(high)/X(q)  e(spline)
   0      8    10.556   115.676    0.17E-03    0.39E-03    0.26E-06
   0      8    10.556    87.132    0.17E-03    0.39E-03    0.26E-06
   1      8    10.556     4.429    0.24E-03    0.31E-03    0.16E-06
   1      8    10.556     2.733    0.17E-03    0.22E-03    0.19E-06
 Optimization of the real space projectors (new method)

 maximal supplied QI-value         = 16.25
 optimisation between [QCUT,QGAM] = [ 10.73, 21.45] = [ 32.22,128.87] Ry
 Optimized for a Real-space Cutoff    1.53 Angstroem

   l    n(q)    QCUT    max X(q) W(low)/X(q) W(high)/X(q)  e(spline)
   1      9    10.726     3.262    0.64E-04    0.35E-04    0.11E-06
   1      9    10.726     5.741    0.13E-03    0.48E-04    0.19E-06
   2      9    10.726    60.438    0.12E-03    0.29E-04    0.13E-06
   2      9    10.726    55.380    0.12E-03    0.29E-04    0.13E-06
   0     10    10.726    80.273    0.43E-04    0.74E-05    0.81E-07
   0     10    10.726    36.654    0.34E-04    0.61E-05    0.73E-07
  PAW_PBE C 08Apr2002                   :
  PAW_PBE N 08Apr2002                   :
  PAW_PBE C 08Apr2002                   :
  PAW_PBE Cr_pv 02Aug2007               :

 POSCAR: POSCAR-clean
  positions in direct lattice
  velocities in cartesian coordinates
 exchange correlation table for  LEXCH =        8
   RHO(1)=    0.500       N(1)  =     2000
   RHO(2)=  100.500       N(2)  =     4000

 VTST: version 3.2, (02/03/18)

 CHAIN: initializing optimizer

 OPT: Using VASP Conjugate-Gradient optimizer
 CHAIN: Read ICHAIN            0

 POSCAR: POSCAR-clean
  positions in direct lattice
  velocities in cartesian coordinates

 ion  position               nearest neighbor table
   1  0.000  0.000  0.498-  60 1.42   2 1.42  70 1.43
   2  0.056  0.112  0.498-  13 1.42   1 1.42  15 1.44
   3  0.168  0.002  0.498-   4 1.42  62 1.42  60 1.43
   4  0.223  0.113  0.498-   3 1.42  15 1.42  17 1.43
   5  0.334  0.002  0.498-  62 1.42   6 1.42  64 1.43
   6  0.390  0.114  0.498-  19 1.42   5 1.42  17 1.44
   7  0.500  1.000  0.498-  64 1.42   8 1.42  66 1.43
   8  0.556  0.112  0.498-  21 1.42   7 1.42  19 1.44
   9  0.666  0.998  0.498-  10 1.42  66 1.42  68 1.43
  10  0.721  0.109  0.497-   9 1.42  23 1.43  21 1.43
  11  0.832  0.998  0.498-  12 1.42  70 1.42  68 1.43
  12  0.888  0.109  0.498-  11 1.42  23 1.43  13 1.43
  13  0.999  0.166  0.498-  14 1.42   2 1.42  12 1.43
  14  0.055  0.277  0.498-  13 1.42  25 1.43  27 1.43
  15  0.168  0.168  0.498-  16 1.42   4 1.42   2 1.44
  16  0.223  0.279  0.500-  15 1.42  27 1.42  29 1.43
  17  0.335  0.171  0.500-  18 1.42   4 1.43   6 1.44
  18  0.390  0.282  0.502-  29 1.42  17 1.42  31 1.43
  19  0.501  0.169  0.499-  20 1.42   6 1.42   8 1.44
  20  0.556  0.280  0.500-  19 1.42  33 1.43  31 1.46
  21  0.666  0.166  0.498-  22 1.42   8 1.42  10 1.43
  22  0.722  0.277  0.498-  21 1.42  35 1.43  33 1.43
  23  0.832  0.165  0.498-  24 1.42  12 1.43  10 1.43
  24  0.888  0.277  0.498-  23 1.42  35 1.42  25 1.43
  25  0.999  0.332  0.498-  26 1.42  24 1.43  14 1.43
  26  0.055  0.444  0.499-  39 1.42  37 1.42  25 1.42
  27  0.166  0.333  0.500-  28 1.42  16 1.42  14 1.43
  28  0.219  0.444  0.501-  41 1.41  27 1.42  39 1.42
  29  0.334  0.337  0.504-  30 1.40  18 1.42  16 1.43
  30  0.387  0.446  0.512-  29 1.40  41 1.41  71 2.00
  31  0.501  0.339  0.503-  32 1.42  18 1.43  20 1.46
  32  0.561  0.450  0.508-  43 1.41  31 1.42  71 1.98
  33  0.667  0.333  0.500-  34 1.42  20 1.43  22 1.43
  34  0.725  0.444  0.501-  43 1.41  33 1.42  45 1.42
  35  0.833  0.332  0.498-  36 1.42  24 1.42  22 1.43
  36  0.890  0.444  0.498-  45 1.42  37 1.42  35 1.42
  37  0.000  0.500  0.498-  26 1.42  36 1.42  38 1.42
  38  0.056  0.611  0.498-  47 1.42  49 1.42  37 1.42
  39  0.165  0.500  0.500-  28 1.42  26 1.42  40 1.42
  40  0.221  0.611  0.501-  49 1.42  51 1.42  39 1.42
  41  0.329  0.498  0.505-  28 1.41  30 1.41  42 1.44
  42  0.386  0.610  0.505-  53 1.41  51 1.42  41 1.44
  43  0.671  0.500  0.505-  34 1.41  32 1.41  44 1.43
  44  0.727  0.612  0.505-  55 1.41  57 1.41  43 1.43
  45  0.835  0.500  0.500-  36 1.42  46 1.42  34 1.42
  46  0.891  0.611  0.500-  47 1.42  45 1.42  57 1.42
  47  0.002  0.667  0.498-  46 1.42  38 1.42  48 1.42
  48  0.057  0.779  0.498-  47 1.42  61 1.42  59 1.43
  49  0.167  0.667  0.499-  40 1.42  38 1.42  50 1.42
  50  0.223  0.779  0.498-  49 1.42  63 1.42  61 1.42
  51  0.332  0.666  0.502-  42 1.42  52 1.42  40 1.42
  52  0.388  0.778  0.500-  51 1.42  65 1.42  63 1.43
  53  0.496  0.662  0.508-  42 1.41  54 1.42  71 1.98
  54  0.553  0.773  0.503-  53 1.42  67 1.44  65 1.44
  55  0.668  0.663  0.510-  44 1.41  56 1.42  71 2.00
  56  0.721  0.773  0.504-  55 1.42  67 1.43  69 1.44
  57  0.837  0.667  0.502-  44 1.41  58 1.42  46 1.42
  58  0.891  0.778  0.500-  57 1.42  69 1.42  59 1.43
  59  0.001  0.835  0.498-  60 1.42  48 1.43  58 1.43
  60  0.057  0.946  0.497-  59 1.42   1 1.42   3 1.43
  61  0.168  0.835  0.498-  62 1.42  48 1.42  50 1.42
  62  0.223  0.946  0.498-  61 1.42   5 1.42   3 1.42
  63  0.333  0.834  0.499-  64 1.42  50 1.42  52 1.43
  64  0.389  0.946  0.498-  63 1.42   7 1.42   5 1.43
  65  0.499  0.831  0.500-  52 1.42  66 1.43  54 1.44
  66  0.555  0.943  0.498-   9 1.42  65 1.43   7 1.43
  67  0.665  0.830  0.502-  68 1.42  56 1.43  54 1.44
  68  0.721  0.941  0.499-  67 1.42   9 1.43  11 1.43
  69  0.833  0.832  0.500-  58 1.42  70 1.42  56 1.44
  70  0.889  0.943  0.498-  69 1.42  11 1.42   1 1.43
  71  0.527  0.555  0.555-  32 1.98  53 1.98  55 2.00  30 2.00

IMPORTANT INFORMATION: All symmetrisations will be switched off!
NOSYMM: (Re-)initialisation of all symmetry stuff for point group C_1.

 KPOINTS: K-Points

Automatic generation of k-mesh.
Space group operators:
 irot       det(A)        alpha          n_x          n_y          n_z        tau_x        tau_y        tau_z
    1     1.000000     0.000000     1.000000     0.000000     0.000000     0.000000     0.000000     0.000000

 Subroutine IBZKPT returns following result:

 Found      4 irreducible k-points:

 Following reciprocal coordinates:
            Coordinates               Weight
  0.000000  0.000000  0.000000      1.000000
  0.500000 -0.000000  0.000000      1.000000
 -0.000000  0.500000  0.000000      1.000000
  0.500000  0.500000  0.000000      1.000000

 Following cartesian coordinates:
            Coordinates               Weight
  0.000000  0.000000  0.000000      1.000000
  0.033632  0.019603  0.000000      1.000000
 -0.000062  0.039205  0.000000      1.000000
  0.033570  0.058808  0.000000      1.000000

 SYSTEM =  unknown system
 POSCAR =  POSCAR-clean

 Startparameter for this run:
   NWRITE =      2    write-flag & timer
   PREC   = accura    normal or accurate (medium, high low for compatibility)
   ISTART =      0    job   : 0-new  1-cont  2-samecut
   ICHARG =      2    charge: 1-file 2-atom 10-const
   ISPIN  =      2    spin polarized calculation?
   LNONCOLLINEAR =      F non collinear calculations
   LSORBIT =      F    spin-orbit coupling
   INIWAV =      1    electr: 0-lowe 1-rand  2-diag
   LASPH  =      F    aspherical Exc in radial PAW
   METAGGA=      F    non-selfconsistent MetaGGA calc.

 Electronic Relaxation 1
   ENCUT  =  440.0 eV  32.34 Ry    5.69 a.u.  25.40 25.22 25.66*2*pi/ulx,y,z
   ENINI  =  440.0     initial cutoff
   ENAUG  =  644.9 eV  augmentation charge cutoff
   NELM   =     50;   NELMIN=  2; NELMDL= -5     # of ELM steps
   EDIFF  = 0.1E-04   stopping-criterion for ELM
   LREAL  =      T    real-space projection
   NLSPLINE    = F    spline interpolate recip. space projectors
   LCOMPAT=      F    compatible to vasp.4.4
   GGA_COMPAT  = T    GGA compatible to vasp.4.4-vasp.4.6
   LMAXPAW     = -100 max onsite density
   LMAXMIX     =    2 max onsite mixed and CHGCAR
   VOSKOWN=      0    Vosko Wilk Nusair interpolation
   ROPT   =   -0.00025  -0.00025  -0.00025  -0.00025
 Ionic relaxation
   EDIFFG = -.5E-01   stopping-criterion for IOM
   NSW    =    400    number of steps for IOM
   NBLOCK =      1;   KBLOCK =    400    inner block; outer block
   IBRION =      2    ionic relax: 0-MD 1-quasi-New 2-CG
   NFREE  =      1    steps in history (QN), initial steepest desc. (CG)
   ISIF   =      2    stress and relaxation
   IWAVPR =     11    prediction:  0-non 1-charg 2-wave 3-comb
   ISYM   =      0    0-nonsym 1-usesym 2-fastsym
   LCORR  =      T    Harris-Foulkes like correction to forces

   POTIM  = 0.3000    time-step for ionic-motion
   TEIN   =    0.0    initial temperature
   TEBEG  =    0.0;   TEEND  =   0.0 temperature during run
   SMASS  =  -3.00    Nose mass-parameter (am)
   estimated Nose-frequenzy (Omega)   =  0.10E-29 period in steps =****** mass=  -0.504E-26a.u.
   SCALEE = 1.0000    scale energy and forces
   NPACO  =    256;   APACO  = 16.0  distance and # of slots for P.C.
   PSTRESS=    0.0 pullay stress

  Mass of Ions in am
   POMASS =  12.01 14.00 12.01 52.00
  Ionic Valenz
   ZVAL   =   4.00  5.00  4.00 12.00
  Atomic Wigner-Seitz radii
  virtual crystal weights
   VCA    =   1.00  1.00  1.00  1.00
   NELECT =     293.0000    total number of electrons
   NUPDOWN=      -1.0000    fix difference up-down

 DOS related values:
   EMIN   =  10.00;   EMAX   =-10.00  energy-range for DOS
   EFERMI =   0.00
   ISMEAR =     0;   SIGMA  =   0.10  broadening in eV -4-tet -1-fermi 0-gaus

 Electronic relaxation 2 (details)
   IALGO  =     68    algorithm
   LDIAG  =      T    sub-space diagonalisation (order eigenvalues)
   LSUBROT=      F    optimize rotation matrix (better conditioning)
   TURBO    =      0    0=normal 1=particle mesh
   IRESTART =      0    0=no restart 2=restart with 2 vectors
   NREBOOT  =      0    no. of reboots
   NMIN     =      0    reboot dimension
[...]

 VOLUME and BASIS-vectors are now :
  energy-cutoff  :      440.00
  volume of cell :     2841.41
      direct lattice vectors                 reciprocal lattice vectors
    14.853071780  0.023521220  0.000000000     0.067264056  0.039205183  0.000000000
    -7.426535890 12.741655181  0.000000000    -0.000124170  0.078410366  0.000000000
     0.000000000  0.000000000 15.000000000     0.000000000  0.000000000  0.066666667

  length of vectors
    14.853090404 14.747990103 15.000000000     0.077855633  0.078410464  0.066666667

 FORCES acting on ions
    electron-ion (+dipol)            ewald-force                    non-local-force                 convergence-correction
   0.321E+01 0.135E+01 0.790E+01   -.337E+01 -.160E+01 -.793E+01   0.164E+00 0.260E+00 0.278E-01   -.204E-04 -.977E-04 -.749E-04
   -.312E+00 0.364E+01 0.805E+01   -.152E+00 -.395E+01 -.808E+01   0.458E+00 0.298E+00 0.289E-01   0.161E-03 0.324E-04 -.755E-04
   0.174E+00 0.455E+01 0.724E+01   -.146E+00 -.490E+01 -.726E+01   -.152E-01 0.333E+00 0.271E-01   -.925E-05 0.108E-03 -.648E-04
   -.203E+01 0.966E+01 0.714E+01   0.216E+01 -.104E+02 -.716E+01   -.110E+00 0.666E+00 0.172E-01   0.987E-04 0.366E-03 -.760E-04
   -.287E+01 0.136E+01 0.697E+01   0.295E+01 -.143E+01 -.699E+01   -.802E-01 0.770E-01 0.266E-01   -.178E-04 0.147E-03 -.661E-04
   -.116E+01 0.419E+01 0.672E+01   0.166E+01 -.440E+01 -.673E+01   -.486E+00 0.210E+00 0.960E-02   -.959E-04 0.357E-03 -.786E-04
   -.238E+01 -.658E-01 0.754E+01   0.248E+01 0.103E-01 -.755E+01   -.111E+00 0.599E-01 0.177E-01   0.869E-04 -.882E-04 -.755E-04
   0.157E+01 0.872E+00 0.779E+01   -.153E+01 -.882E+00 -.782E+01   -.654E-01 0.459E-02 0.326E-01   -.136E-03 0.452E-04 -.754E-04
   -.898E+00 -.798E+00 0.747E+01   0.966E+00 0.703E+00 -.749E+01   -.501E-01 0.110E+00 0.172E-01   0.527E-04 -.367E-03 -.735E-04
   0.825E+00 -.799E+00 0.764E+01   -.831E+00 0.656E+00 -.766E+01   0.122E-01 0.144E+00 0.296E-01   0.315E-04 -.119E-03 -.644E-04
   0.271E+01 0.617E-01 0.690E+01   -.282E+01 -.222E+00 -.690E+01   0.104E+00 0.164E+00 0.159E-02   -.912E-04 -.302E-03 -.760E-04
   0.814E+00 -.678E+00 0.668E+01   -.983E+00 0.483E+00 -.670E+01   0.178E+00 0.206E+00 0.215E-01   -.587E-04 -.140E-03 -.650E-04
   0.636E+01 0.603E+01 0.681E+01   -.663E+01 -.620E+01 -.682E+01   0.252E+00 0.183E+00 0.533E-02   0.691E-04 -.114E-05 -.692E-04
   0.627E+01 0.233E+01 0.620E+01   -.678E+01 -.264E+01 -.622E+01   0.509E+00 0.291E+00 0.993E-02   0.198E-03 0.200E-03 -.695E-04
   0.842E+01 0.149E+02 0.990E+01   -.863E+01 -.161E+02 -.992E+01   0.194E+00 0.120E+01 0.159E-01   0.221E-03 0.285E-03 -.862E-04
   0.214E+02 0.201E+02 0.133E+02   -.261E+02 -.230E+02 -.135E+02   0.466E+01 0.286E+01 0.246E+00   0.476E-03 0.572E-03 -.744E-04
   -.813E+01 0.136E+02 0.693E+01   0.844E+01 -.145E+02 -.696E+01   -.312E+00 0.847E+00 0.328E-01   0.319E-05 0.575E-03 -.815E-04
   -.264E+02 0.226E+02 0.727E+01   0.318E+02 -.248E+02 -.710E+01   -.541E+01 0.216E+01 -.171E+00   0.378E-04 0.917E-03 -.833E-04
   -.565E+01 0.657E+01 0.756E+01   0.584E+01 -.650E+01 -.757E+01   -.184E+00 -.731E-01 0.166E-02   -.203E-03 0.317E-03 -.896E-04
   -.599E+00 0.601E+01 0.913E+01   0.531E+00 -.597E+01 -.923E+01   0.679E-01 -.414E-01 0.820E-01   -.504E-03 0.634E-03 -.832E-04
   -.249E+01 0.443E+01 0.795E+01   0.255E+01 -.446E+01 -.796E+01   -.538E-01 0.558E-01 0.145E-01   -.132E-03 0.393E-04 -.696E-04
   -.248E+01 0.227E+01 0.758E+01   0.247E+01 -.234E+01 -.761E+01   -.110E-02 0.590E-01 0.273E-01   -.249E-03 0.177E-03 -.689E-04
   0.125E+01 0.225E+01 0.617E+01   -.133E+01 -.231E+01 -.616E+01   0.797E-01 0.646E-01 -.154E-01   0.391E-04 -.831E-04 -.560E-04
   0.663E+00 0.196E+01 0.626E+01   -.762E+00 -.203E+01 -.629E+01   0.130E+00 0.564E-01 0.267E-01   0.284E-04 0.129E-04 -.541E-04
   0.393E+01 0.446E+01 0.525E+01   -.414E+01 -.445E+01 -.523E+01   0.203E+00 -.465E-02 -.247E-01   0.110E-03 0.107E-03 -.617E-04
   0.494E+01 0.257E+01 0.613E+01   -.503E+01 -.260E+01 -.617E+01   0.113E+00 -.346E-02 0.271E-01   0.195E-03 0.115E-03 -.694E-04
   0.158E+02 0.105E+02 0.817E+01   -.169E+02 -.101E+02 -.811E+01   0.109E+01 -.380E+00 -.514E-01   0.513E-03 0.443E-03 -.760E-04
   0.195E+02 0.209E+01 0.890E+01   -.198E+02 -.146E+01 -.905E+01   0.291E+00 -.633E+00 0.156E+00   0.870E-03 0.396E-03 -.747E-04
   0.605E+00 0.233E+02 0.143E+02   -.237E+00 -.218E+02 -.149E+02   -.374E+00 -.146E+01 0.542E+00   0.615E-03 0.152E-02 -.725E-05
   -.533E+01 0.633E+01 0.933E+01   0.129E+02 0.395E+01 -.717E+01   -.760E+01 -.103E+02 -.214E+01   0.113E-02 0.145E-02 0.357E-03
   -.123E+02 0.200E+02 0.136E+02   0.132E+02 -.183E+02 -.139E+02   -.875E+00 -.163E+01 0.269E+00   -.399E-03 0.135E-02 -.157E-04
   -.321E+01 0.325E+02 0.338E+02   -.264E+01 -.283E+02 -.331E+02   0.590E+01 -.421E+01 -.715E+00   -.109E-02 0.141E-02 0.481E-03
   -.573E+01 0.109E+02 0.722E+01   0.567E+01 -.109E+02 -.720E+01   0.542E-01 0.792E-02 -.342E-01   -.531E-03 0.421E-03 -.736E-04
   -.144E+02 0.723E+01 0.731E+01   0.143E+02 -.710E+01 -.741E+01   0.178E+00 -.146E+00 0.963E-01   -.894E-03 0.384E-03 -.661E-04
   -.478E+00 0.433E+01 0.677E+01   0.406E+00 -.435E+01 -.676E+01   0.654E-01 0.283E-01 -.536E-02   -.149E-03 0.710E-04 -.607E-04
   -.334E+01 0.345E+01 0.703E+01   0.328E+01 -.350E+01 -.707E+01   0.636E-01 0.548E-01 0.401E-01   -.224E-03 0.134E-03 -.655E-04
   0.109E+01 0.107E-01 0.654E+01   -.120E+01 0.236E-01 -.654E+01   0.106E+00 -.192E-01 0.355E-02   0.381E-04 0.988E-04 -.622E-04
   -.234E+00 -.660E+00 0.755E+01   0.205E+00 0.656E+00 -.758E+01   0.300E-01 -.163E-01 0.408E-01   0.595E-04 0.178E-04 -.607E-04
   0.935E+01 -.129E+01 0.512E+01   -.966E+01 0.152E+01 -.509E+01   0.283E+00 -.204E+00 -.322E-01   0.510E-03 0.152E-03 -.896E-04
   0.680E+01 -.302E+01 0.275E+01   -.676E+01 0.315E+01 -.266E+01   -.260E-01 -.146E+00 -.887E-01   0.496E-03 -.324E-04 -.876E-04
   0.292E+02 -.185E+01 0.149E+02   -.291E+02 0.213E+01 -.157E+02   -.147E+00 -.289E+00 0.758E+00   0.140E-02 0.370E-03 0.150E-03
   0.283E+02 -.130E+02 0.140E+02   -.274E+02 0.140E+02 -.147E+02   -.822E+00 -.950E+00 0.748E+00   0.150E-02 -.237E-03 0.180E-03
   -.270E+02 0.973E+01 0.169E+02   0.263E+02 -.100E+02 -.174E+02   0.671E+00 0.290E+00 0.577E+00   -.158E-02 0.204E-03 0.179E-03
   -.266E+02 -.113E+02 0.124E+02   0.257E+02 0.118E+02 -.130E+02   0.893E+00 -.507E+00 0.652E+00   -.150E-02 -.359E-03 0.172E-03
   -.586E+01 0.160E+01 0.538E+01   0.581E+01 -.159E+01 -.534E+01   0.433E-01 0.949E-02 -.341E-01   -.551E-03 0.102E-03 -.826E-04
   -.661E+01 -.138E+01 0.540E+01   0.651E+01 0.137E+01 -.533E+01   0.744E-01 0.152E-01 -.589E-01   -.514E-03 -.786E-04 -.856E-04
   -.297E+01 -.360E+01 0.818E+01   0.293E+01 0.359E+01 -.823E+01   0.560E-01 0.116E-01 0.511E-01   -.167E-03 -.330E-04 -.682E-04
   -.161E+01 -.276E+01 0.692E+01   0.155E+01 0.276E+01 -.690E+01   0.546E-01 0.250E-01 -.254E-01   -.934E-04 -.522E-04 -.607E-04
   0.362E+01 -.403E+01 0.634E+01   -.364E+01 0.410E+01 -.638E+01   0.206E-01 -.707E-01 0.427E-01   0.198E-03 -.934E-04 -.653E-04
   0.146E+01 -.326E+01 0.583E+01   -.139E+01 0.330E+01 -.580E+01   -.798E-01 -.436E-01 -.204E-01   0.697E-04 -.126E-03 -.600E-04
   0.116E+02 -.873E+01 0.211E+01   -.114E+02 0.879E+01 -.215E+01   -.218E+00 -.487E-01 0.341E-01   0.837E-03 -.404E-03 -.734E-04
   0.525E+01 -.101E+02 0.546E+01   -.503E+01 0.102E+02 -.545E+01   -.205E+00 -.130E+00 -.265E-01   0.506E-03 -.419E-03 -.714E-04
   -.577E+01 -.394E+02 0.357E+02   0.119E+02 0.363E+02 -.352E+02   -.621E+01 0.317E+01 -.536E+00   0.109E-02 -.143E-02 0.509E-03
   0.771E+00 -.193E+02 0.145E+02   -.487E+00 0.185E+02 -.147E+02   -.309E+00 0.827E+00 0.187E+00   0.421E-03 -.126E-02 0.769E-05
   0.589E+01 -.364E+02 0.200E+02   -.120E+02 0.329E+02 -.189E+02   0.618E+01 0.352E+01 -.108E+01   -.112E-02 -.146E-02 0.418E-03
   -.532E+00 -.191E+02 0.114E+02   0.262E+00 0.181E+02 -.116E+02   0.271E+00 0.987E+00 0.203E+00   -.502E-03 -.124E-02 -.872E-05
   -.126E+02 -.703E+01 0.443E+01   0.124E+02 0.696E+01 -.454E+01   0.246E+00 0.642E-01 0.113E+00   -.798E-03 -.393E-03 -.596E-04
   -.507E+01 -.933E+01 0.693E+01   0.482E+01 0.934E+01 -.688E+01   0.268E+00 -.366E-01 -.429E-01   -.398E-03 -.404E-03 -.729E-04
   -.234E+01 -.164E+01 0.795E+01   0.224E+01 0.157E+01 -.797E+01   0.119E+00 0.600E-01 0.282E-01   -.132E-03 -.154E-03 -.691E-04
   -.178E+01 -.207E+01 0.807E+01   0.173E+01 0.197E+01 -.808E+01   0.610E-01 0.116E+00 0.160E-01   -.921E-04 -.449E-04 -.695E-04
   -.520E+00 -.149E+01 0.655E+01   0.542E+00 0.144E+01 -.658E+01   -.110E-01 0.422E-01 0.260E-01   -.296E-04 -.887E-04 -.532E-04
   -.106E+01 0.507E+00 0.604E+01   0.113E+01 -.577E+00 -.602E+01   -.916E-01 0.805E-01 -.245E-01   -.496E-05 0.267E-04 -.564E-04
   0.871E+00 -.333E+01 0.655E+01   -.785E+00 0.336E+01 -.658E+01   -.700E-01 -.177E-01 0.307E-01   0.195E-03 -.188E-03 -.671E-04
   0.153E+01 -.315E+01 0.737E+01   -.146E+01 0.312E+01 -.739E+01   -.731E-01 0.426E-01 0.178E-01   0.114E-03 -.847E-05 -.699E-04
   -.129E+01 -.818E+01 0.100E+02   0.175E+01 0.799E+01 -.101E+02   -.474E+00 0.201E+00 0.986E-01   0.454E-03 -.605E-03 -.775E-04
   0.247E+01 -.451E+01 0.825E+01   -.239E+01 0.437E+01 -.828E+01   -.898E-01 0.127E+00 0.263E-01   0.119E-03 -.341E-03 -.856E-04
   0.748E+00 -.923E+01 0.591E+01   -.707E+00 0.864E+01 -.554E+01   -.514E-01 0.626E+00 -.386E+00   -.271E-04 -.931E-03 -.750E-04
   0.357E+00 -.636E+01 0.673E+01   -.403E+00 0.596E+01 -.676E+01   0.477E-01 0.386E+00 0.182E-01   0.598E-05 -.634E-03 -.723E-04
   0.246E+01 -.709E+01 0.108E+02   -.295E+01 0.681E+01 -.109E+02   0.499E+00 0.301E+00 0.113E+00   -.452E-03 -.595E-03 -.802E-04
   -.147E+01 -.425E+01 0.884E+01   0.133E+01 0.402E+01 -.887E+01   0.147E+00 0.252E+00 0.341E-01   -.140E-03 -.272E-03 -.868E-04
   -.598E+01 -.190E+02 -.641E+03   0.694E+01 0.192E+02 0.623E+03   -.977E+00 -.163E+00 0.177E+02   0.307E-03 0.196E-04 -.286E-02
   0.742E+00 -.601E-01 -.178E+02   0.117E-12 0.956E-12 -.227E-12   -.745E+00 0.544E-01 0.178E+02   0.344E-03 0.494E-03 -.460E-02

 POSITION                                       TOTAL-FORCE (eV/Angst)
      0.00371      0.00113      7.46423         0.004387      0.002910     -0.003100
      0.00264      1.42518      7.46465        -0.006970     -0.015603     -0.006413
      2.48104      0.02856      7.46365         0.012964     -0.017633     -0.000795
      2.47918      1.44562      7.47528         0.019659     -0.030872      0.000989
      4.94754      0.03651      7.46544        -0.003913      0.008958     -0.000730
      4.94395      1.46141      7.47700         0.021486      0.003483      0.001123
     -0.00007     12.75324      7.46639        -0.003454      0.005057      0.006176
      7.42310      1.43616      7.46540        -0.027527     -0.006336      0.005731
      2.47758     12.73200      7.47399         0.018002      0.012981     -0.000649
      9.90356      1.41080      7.46239         0.006571     -0.001037      0.000919
      4.95166     12.73660      7.47549        -0.009399      0.002207     -0.000233
     12.37574      1.41372      7.46546         0.009398      0.009205     -0.000503
     13.61316      2.13388      7.46680        -0.018219      0.015031     -0.005503
     -1.23911      3.52597      7.47695        -0.006630     -0.022747     -0.011402
      1.24442      2.14930      7.47362        -0.008501      0.001943      0.000464
      1.24145      3.56440      7.49758         0.004262     -0.013585      0.007370
      3.70205      2.18229      7.49282        -0.001601      0.005318      0.002939
      3.69435      3.60435      7.53654        -0.012893     -0.021869     -0.001415
      6.18326      2.16207      7.47838        -0.001585     -0.006288     -0.005018
      6.17503      3.58405      7.50141        -0.001372     -0.008320     -0.011542
      8.66617      2.12839      7.46276        -0.000023      0.027061      0.006725
      8.66749      3.54632      7.47146        -0.013878     -0.005370      0.004039
     11.13938      2.12264      7.46340         0.004529      0.010999     -0.001829
     11.14031      3.54401      7.46534         0.030616     -0.007957     -0.003866
     12.37544      4.25770      7.47382         0.000508      0.000466     -0.009805
     -2.48380      5.65447      7.47932         0.014763     -0.025608     -0.008927
     -0.00447      4.24471      7.49725        -0.018489      0.018723      0.004182
     -0.03557      5.65952      7.51990        -0.001205     -0.008000      0.007311
      2.46133      4.29961      7.55643         0.002717     -0.007603      0.013393
      2.43481      5.68986      7.67369        -0.010846     -0.004721      0.016018
      4.92755      4.33663      7.54712        -0.003667     -0.011431     -0.001348
      4.98520      5.75085      7.62621         0.032004      0.002198     -0.007684
      7.43153      4.26125      7.49608        -0.001116      0.003783     -0.011506
      7.46289      5.67826      7.51796        -0.016536     -0.020132     -0.010628
      9.90681      4.25500      7.46844        -0.006706      0.003581      0.005433
      9.91592      5.67593      7.47495        -0.001803      0.006943      0.005487
     -3.70994      6.36744      7.47294        -0.004687      0.013963     -0.004800
     -3.70680      7.78959      7.47086         0.001666     -0.018670      0.002761
     -1.26031      6.36958      7.50187        -0.030833      0.020618      0.002368
     -1.25634      7.79093      7.50823         0.013564     -0.015238     -0.007542
      1.18971      6.34778      7.58034        -0.016010     -0.023823      0.012129
      1.20004      7.78697      7.57944         0.019631      0.012091      0.016291
      6.24722      6.38644      7.56813         0.016929      0.001074     -0.006960
      6.25107      7.81579      7.58037         0.006398     -0.008650      0.005552
      8.69399      6.39020      7.49690        -0.003730      0.019788      0.004781
      8.69749      7.80966      7.49781        -0.024630      0.001445      0.005191
     -4.93289      8.50250      7.47248         0.010111      0.006804      0.003689
     -4.93922      9.92487      7.46784        -0.008437      0.019216     -0.000512
     -2.47928      8.50472      7.47972         0.003877      0.002782      0.000699
     -2.47521      9.92722      7.47310        -0.001642     -0.002411      0.003398
     -0.02501      8.49911      7.53535        -0.020174      0.010504     -0.003601
     -0.00743      9.91884      7.50468         0.015793     -0.015052     -0.007284
      2.44623      8.44631      7.62202        -0.013468      0.013588     -0.002461
      2.48046      9.86230      7.54337        -0.012458     -0.005577     -0.005450
      4.99927      8.46039      7.65398         0.010559      0.010926      0.013584
      4.95880      9.87194      7.55360        -0.012582      0.012198      0.012786
      7.47014      8.52344      7.52648         0.010527     -0.010536      0.003856
      7.44604      9.93971      7.49818         0.013922     -0.013110      0.005279
     -6.17571     10.63325      7.47108         0.018396     -0.012514      0.004984
     -6.18075     12.05021      7.46248         0.010192      0.011238      0.002200
     -3.70826     10.63948      7.46475         0.010908     -0.004725     -0.004113
     -3.70921     12.06162      7.46401        -0.012962      0.011459     -0.005771
     -1.24171     10.63676      7.47755         0.016685      0.009160      0.005757
     -1.24171     12.05757      7.46630         0.000569      0.015617      0.004898
      1.24112     10.60354      7.50077        -0.015020      0.005001     -0.007188
      1.23820     12.02918      7.47652        -0.000583     -0.019191     -0.002233
      3.71807     10.59073      7.53646        -0.011144      0.021099     -0.010368
      3.71497     12.01059      7.49178         0.001583     -0.014128     -0.008030
      6.19597     10.61643      7.49907         0.007968      0.016070      0.006422
      6.19378     12.03972      7.47474        -0.002647      0.021533     -0.003474
      3.70922      7.08827      8.32905        -0.003808      0.001718     -0.022241
    total drift:                               -0.002234     -0.005273      0.000272

  FREE ENERGIE OF THE ION-ELECTRON SYSTEM (eV)
  free  energy   TOTEN  =      -653.77142384 eV

  energy  without entropy=     -653.74143454  energy(sigma->0) =     -653.75642919

 stress matrix after NEB project (eV)
     -1.54885      0.16973     -0.00313
      0.16973     -1.78038      0.00149
     -0.00313      0.00149     -3.51843
  FORCES: max atom, RMS     0.037167    0.020051
  FORCE total and by dimension    0.168955    0.032004
  Stress total and by dimension    4.243307    3.518427

 reached required accuracy - stopping structural energy minimisation