 vasp.5.4.4.18Apr17-6-g9f103f2a35 (build Nov  8 2022 18:58:45) complex
 executed on             LinuxGNU date 2023.04.13  15:54:02

 INCAR:
 POTCAR:    PAW_PBE C 08Apr2002
 POTCAR:    PAW_PBE N 08Apr2002
 POTCAR:    PAW_PBE Ge_d 03Jul2007
 POTCAR:    PAW_PBE C 08Apr2002
 POTCAR:    PAW_PBE O 08Apr2002
 POTCAR:    PAW_PBE C 08Apr2002
   VRHFIN =C: s2p2

   TITEL  = PAW_PBE C 08Apr2002
   POMASS =   12.011; ZVAL   =    4.000    mass and valenz
   ENMAX  =  400.000; ENMIN  =  300.000 eV

[...]

   TITEL  = PAW_PBE Ge_d 03Jul2007
   POMASS =   72.610; ZVAL   =   14.000    mass and valenz
   ENMAX  =  310.294; ENMIN  =  232.720 eV

[...]

   TITEL  = PAW_PBE O 08Apr2002
   POMASS =   16.000; ZVAL   =    6.000    mass and valenz
   ENMAX  =  400.000; ENMIN  =  300.000 eV

  PAW_PBE C 08Apr2002                   :
  PAW_PBE N 08Apr2002                   :
  PAW_PBE Ge_d 03Jul2007                :
  PAW_PBE C 08Apr2002                   :
  PAW_PBE O 08Apr2002                   :

 POSCAR: POSCAR-c3n4
  positions in cartesian coordinates
 exchange correlation table for  LEXCH =        8
   RHO(1)=    0.500       N(1)  =     2000
   RHO(2)=  100.500       N(2)  =     4000

 ion  position               nearest neighbor table
   1  0.106  0.214  0.436-  26 1.53  46 1.53  25 1.61
   2  0.288  0.399  0.443-  29 1.50  35 1.58  25 1.63
   3  0.104  0.392  0.437-  44 1.50  39 1.57  25 1.63
   4  0.447  0.064  0.516-  30 1.51  27 1.52  48 1.61
   5  0.453  0.401  0.422-  28 1.52  29 1.53  56 1.63
   6  0.112  0.053  0.459-  26 1.51  31 1.52  32 1.60
   7  0.096  0.712  0.494-  54 1.52  34 1.55  33 1.60
   8  0.284  0.890  0.511-  27 1.52  37 1.54  33 1.61
   9  0.109  0.895  0.508-  31 1.51  52 1.53  33 1.63
  10  0.448  0.548  0.512-  38 1.51  56 1.54  35 1.55
  11  0.445  0.885  0.499-  37 1.52  36 1.53  48 1.58
  12  0.087  0.542  0.491-  34 1.51  40 1.53  39 1.55
  13  0.616  0.223  0.483-  42 1.54  30 1.54  41 1.60
  14  0.780  0.390  0.410-  45 1.54  51 1.55  41 1.60
  15  0.610  0.394  0.445-  28 1.53  55 1.53  41 1.66
  16  0.940  0.052  0.471-  46 1.50  43 1.52  32 1.59
  17  0.941  0.387  0.404-  45 1.51  44 1.53  40 1.62
  18  0.623  0.066  0.522-  42 1.51  47 1.53  48 1.61
  19  0.613  0.711  0.541-  50 1.51  38 1.56  49 1.61
  20  0.790  0.897  0.533-  43 1.51  53 1.53  49 1.65
  21  0.609  0.892  0.531-  47 1.52  36 1.54  49 1.64
  22  0.938  0.563  0.430-  51 1.49  54 1.54  40 1.62
  23  0.954  0.902  0.545-  52 1.53  53 1.53  32 1.59
  24  0.621  0.555  0.500-  55 1.50  50 1.52  56 1.61
  25  0.167  0.335  0.435-   1 1.61   3 1.63   2 1.63
  26  0.165  0.161  0.431-   6 1.51   1 1.53
  27  0.336  0.002  0.532-   8 1.52   4 1.52
  28  0.512  0.352  0.402-   5 1.52  15 1.53
  29  0.345  0.361  0.400-   2 1.50   5 1.53
  30  0.506  0.177  0.503-   4 1.51  13 1.54
  31  0.159  0.988  0.457-   9 1.51   6 1.52
  32  0.002  0.002  0.493-  16 1.59  23 1.59   6 1.60
  33  0.165  0.831  0.510-   7 1.60   8 1.61   9 1.63
  34  0.134  0.645  0.528-  12 1.51   7 1.55
  35  0.334  0.491  0.501-  10 1.55   2 1.58
  36  0.503  0.831  0.500-  11 1.53  21 1.54
  37  0.333  0.829  0.489-  11 1.52   8 1.54
  38  0.499  0.648  0.555-  10 1.51  19 1.56
  39  0.142  0.484  0.495-  12 1.55   3 1.57
  40  0.988  0.496  0.446-  12 1.53  22 1.62  17 1.62
  41  0.667  0.330  0.439-  13 1.60  14 1.60  15 1.66
  42  0.680  0.178  0.505-  18 1.51  13 1.54
  43  0.827  0.986  0.478-  20 1.51  16 1.52
  44  0.011  0.348  0.389-   3 1.50  17 1.53
  45  0.830  0.330  0.389-  17 1.51  14 1.54
  46  0.993  0.161  0.445-  16 1.50   1 1.53
  47  0.669  0.005  0.549-  21 1.52  18 1.53
  48  0.505  0.004  0.508-  11 1.58  18 1.61   4 1.61
  49  0.668  0.832  0.544-  19 1.61  21 1.64  20 1.65
  50  0.675  0.666  0.522-  19 1.51  24 1.52
  51  0.832  0.507  0.406-  22 1.49  14 1.55
  52  0.016  0.853  0.559-  23 1.53   9 1.53
  53  0.849  0.860  0.576-  20 1.53  23 1.53
  54  0.004  0.677  0.444-   7 1.52  22 1.54
  55  0.668  0.491  0.494-  24 1.50  15 1.53
  56  0.506  0.502  0.477-  10 1.54  24 1.61   5 1.63
  57  0.287  0.593  0.568-
  58  0.287  0.593  0.966-  59 1.32
  59  0.232  0.530  0.023-  58 1.32

IMPORTANT INFORMATION: All symmetrisations will be switched off!
NOSYMM: (Re-)initialisation of all symmetry stuff for point group C_1.

 KPOINTS: K-Points

Automatic generation of k-mesh.
Space group operators:
 irot       det(A)        alpha          n_x          n_y          n_z        tau_x        tau_y        tau_z
    1     1.000000     0.000000     1.000000     0.000000     0.000000     0.000000     0.000000     0.000000

 Subroutine IBZKPT returns following result:

 Found      5 irreducible k-points:

 Following reciprocal coordinates:
            Coordinates               Weight
  0.000000  0.000000  0.000000      1.000000
  0.333333  0.000000  0.000000      2.000000
  0.000000  0.333333  0.000000      2.000000
  0.333333  0.333333  0.000000      2.000000
 -0.333333  0.333333  0.000000      2.000000

 Following cartesian coordinates:
            Coordinates               Weight
  0.000000  0.000000  0.000000      1.000000
  0.024277  0.014368  0.000000      2.000000
  0.000396  0.028736  0.000000      2.000000
  0.024673  0.043104  0.000000      2.000000
 -0.023881  0.014368  0.000000      2.000000

 TETIRR: Found     24 inequivalent tetrahedra from       54

 SYSTEM =  unknown system
 POSCAR =  POSCAR-c3n4

 Startparameter for this run:
   NWRITE =      2    write-flag & timer
   PREC   = normal    normal or accurate (medium, high low for compatibility)
   ISTART =      0    job   : 0-new  1-cont  2-samecut
   ICHARG =      2    charge: 1-file 2-atom 10-const
   ISPIN  =      2    spin polarized calculation?
   LNONCOLLINEAR =      F non collinear calculations
   LSORBIT =      F    spin-orbit coupling
   INIWAV =      1    electr: 0-lowe 1-rand  2-diag
   LASPH  =      F    aspherical Exc in radial PAW
   METAGGA=      F    non-selfconsistent MetaGGA calc.

 Electronic Relaxation 1
   ENCUT  =  440.0 eV  32.34 Ry    5.69 a.u.  26.99 26.50 29.25*2*pi/ulx,y,z
   ENINI  =  440.0     initial cutoff
   ENAUG  =  644.9 eV  augmentation charge cutoff
   NELM   =    100;   NELMIN=  2; NELMDL= -5     # of ELM steps
   EDIFF  = 0.1E-03   stopping-criterion for ELM
   LREAL  =      F    real-space projection
   NLSPLINE    = F    spline interpolate recip. space projectors
   LCOMPAT=      F    compatible to vasp.4.4
   GGA_COMPAT  = T    GGA compatible to vasp.4.4-vasp.4.6
   LMAXPAW     = -100 max onsite density
   LMAXMIX     =    2 max onsite mixed and CHGCAR
   VOSKOWN=      0    Vosko Wilk Nusair interpolation
   ROPT   =    0.00000   0.00000   0.00000   0.00000
   ROPT   =    0.00000
 Ionic relaxation
   EDIFFG = -.1E-01   stopping-criterion for IOM
   NSW    =      0    number of steps for IOM
   NBLOCK =      1;   KBLOCK =      1    inner block; outer block
   IBRION =     -1    ionic relax: 0-MD 1-quasi-New 2-CG
   NFREE  =      0    steps in history (QN), initial steepest desc. (CG)
   ISIF   =      2    stress and relaxation
   IWAVPR =     10    prediction:  0-non 1-charg 2-wave 3-comb
   ISYM   =      0    0-nonsym 1-usesym 2-fastsym
   LCORR  =      T    Harris-Foulkes like correction to forces

   POTIM  = 0.5000    time-step for ionic-motion
   TEIN   =    0.0    initial temperature
   TEBEG  =    0.0;   TEEND  =   0.0 temperature during run
   SMASS  =  -3.00    Nose mass-parameter (am)
   estimated Nose-frequenzy (Omega)   =  0.10E-29 period in steps =****** mass=  -0.569E-26a.u.
   SCALEE = 1.0000    scale energy and forces
   NPACO  =    256;   APACO  = 16.0  distance and # of slots for P.C.
   PSTRESS=    0.0 pullay stress

  Mass of Ions in am
   POMASS =  12.01 14.00 72.61 12.01 16.00
  Ionic Valenz
   ZVAL   =   4.00  5.00 14.00  4.00  6.00
  Atomic Wigner-Seitz radii
  virtual crystal weights
   VCA    =   1.00  1.00  1.00  1.00  1.00
   NELECT =     280.0000    total number of electrons
   NUPDOWN=      -1.0000    fix difference up-down

 DOS related values:
   EMIN   = -14.00;   EMAX   =  6.00  energy-range for DOS
   EFERMI =   0.00
   ISMEAR =    -5;   SIGMA  =   0.20  broadening in eV -4-tet -1-fermi 0-gaus

 Electronic relaxation 2 (details)
   IALGO  =     38    algorithm
   LDIAG  =      T    sub-space diagonalisation (order eigenvalues)
   LSUBROT=      F    optimize rotation matrix (better conditioning)
   TURBO    =      0    0=normal 1=particle mesh
   IRESTART =      0    0=no restart 2=restart with 2 vectors
   NREBOOT  =      0    no. of reboots
   NMIN     =      0    reboot dimension
   EREF     =   0.00    reference energy to select bands
   IMIX   =      4    mixing-type and parameters
     AMIX     =   0.25;   BMIX     =  0.00
     AMIX_MAG =   1.00;   BMIX_MAG =  0.00
     AMIN     =   0.10
     WC   =   100.;   INIMIX=   1;  MIXPRE=   1;  MAXMIX= -45

 Intra band minimization:
   WEIMIN = 0.0000     energy-eigenvalue tresh-hold
   EBREAK =  0.15E-06  absolut break condition
   DEPER  =   0.30     relativ break condition

   TIME   =   0.40     timestep for ELM

  volume/ion in A,a.u.               =      60.49       408.17
  Fermi-wavevector in a.u.,A,eV,Ry     =   0.700854  1.324421  6.683124  0.491196
  Thomas-Fermi vector in A             =   1.785121

 Write flags
   LWAVE        =      F    write WAVECAR
   LDOWNSAMPLE  =      F    k-point downsampling of WAVECAR
   LCHARG       =      F    write CHGCAR
   LVTOT        =      F    write LOCPOT, total local potential
   LVHAR        =      F    write LOCPOT, Hartree potential only
   LELF         =      F    write electronic localiz. function (ELF)
   LORBIT       =     11    0 simple, 1 ext, 2 COOP (PROOUT), +10 PAW based schemes

 Dipole corrections
   LMONO  =      F    monopole corrections only (constant potential shift)
   LDIPOL =      F    correct potential (dipole corrections)
   IDIPOL =      0    1-x, 2-y, 3-z, 4-all directions
   EPSILON=  1.0000000 bulk dielectric constant

 Exchange correlation treatment:
   GGA     =    --    GGA type
   VOSKOWN=      0    Vosko Wilk Nusair interpolation
   LHFCALC =     F    Hartree Fock is set to
   LHFONE  =     F    Hartree Fock one center treatment
   AEXX    =    0.0000 exact exchange contribution

 Linear response parameters
   LEPSILON=     F    determine dielectric tensor
   LRPA    =     F    only Hartree local field effects (RPA)
   LNABLA  =     F    use nabla operator in PAW spheres
   LVEL    =     F    velocity operator in full k-point grid
   LINTERFAST=   F  fast interpolation
   KINTER  =     0    interpolate to denser k-point grid
   CSHIFT  =0.1000    complex shift for real part using Kramers Kronig
   OMEGAMAX=  -1.0    maximum frequency
   DEG_THRESHOLD= 0.2000000E-02 threshold for treating states as degnerate
   RTIME   =   -0.100 relaxation time in fs
  (WPLASMAI=    0.000 imaginary part of plasma frequency in eV, 0.658/RTIME)
   DFIELD  = 0.0000000 0.0000000 0.0000000 field for delta impulse in time

 Orbital magnetization related:
   ORBITALMAG=     F  switch on orbital magnetization
   LCHIMAG   =     F  perturbation theory with respect to B field
   DQ        =  0.001000  dq finite difference perturbation B field
[...]
  Total    -303.42345  -279.81902   -75.06735     2.52784    -7.54895    -4.88080
  in kB    -136.22572  -125.62822   -33.70242     1.13491    -3.38919    -2.19129

 VOLUME and BASIS-vectors are now :
  energy-cutoff  :      440.00
  volume of cell :     3568.62
      direct lattice vectors                 reciprocal lattice vectors
    15.781503627 -0.217444140  0.000000000     0.063886289  0.037810627 -0.000000000
    -7.890751814 13.332517733  0.000000000     0.001041941  0.075621253 -0.000000000
     0.000000000  0.000000000 17.100000000    -0.000000000 -0.000000000  0.058479532

  length of vectors
    15.783001574 15.492578652 17.100000000     0.074236793  0.075628431  0.058479532

 FORCES acting on ions
    electron-ion (+dipol)            ewald-force                    non-local-force                 convergence-correction
   -.423E+01 0.444E+01 0.845E+02   0.438E+01 -.104E+02 -.821E+02   -.142E+00 0.376E+01 -.154E+01   -.341E-03 0.375E-02 0.198E-03
   0.274E+01 0.240E+02 0.899E+02   0.244E+01 -.230E+02 -.895E+02   -.286E+01 -.636E+00 -.999E-01   -.190E-02 -.136E-02 -.362E-03
   -.132E+02 0.258E+02 0.876E+02   0.809E+01 -.249E+02 -.879E+02   0.277E+01 -.670E+00 0.325E+00   0.530E-02 -.534E-02 -.262E-02
   0.511E+02 -.421E+02 -.631E+02   -.521E+02 0.428E+02 0.628E+02   0.173E+01 -.925E+00 -.238E+00   -.257E-02 -.131E-02 0.149E-02
   -.119E+02 0.403E+02 0.143E+03   0.127E+02 -.417E+02 -.143E+03   -.508E+00 0.153E+01 0.118E+01   -.645E-02 0.256E-03 0.188E-02
   -.475E+02 -.125E+02 0.691E+02   0.487E+02 0.132E+02 -.693E+02   -.186E+01 -.790E+00 0.646E+00   0.320E-03 0.170E-02 0.136E-03
   0.308E+02 -.252E+02 -.264E+02   -.315E+02 0.203E+02 0.247E+02   0.372E+00 0.311E+01 0.694E+00   0.991E-03 0.326E-02 0.640E-03
   0.233E+02 -.106E+02 -.355E+02   -.182E+02 0.138E+02 0.349E+02   -.328E+01 -.178E+01 0.293E+00   -.118E-02 -.197E-02 0.282E-02
   -.870E+01 0.146E+01 -.435E+02   0.351E+01 0.170E+01 0.430E+02   0.332E+01 -.166E+01 0.648E-01   -.730E-03 0.272E-03 0.257E-03
   -.189E+02 0.136E+02 -.518E+02   0.190E+02 -.119E+02 0.524E+02   0.918E+00 -.150E+01 -.118E+01   -.361E-02 0.139E-02 0.101E-02
   -.271E+01 0.147E+02 0.353E+02   0.264E+01 -.159E+02 -.342E+02   -.109E-02 0.233E+01 -.405E+00   -.790E-04 -.643E-02 0.418E-02
   0.246E+02 0.126E+02 -.486E+02   -.245E+02 -.106E+02 0.484E+02   -.105E+01 -.172E+01 -.994E+00   0.745E-02 0.481E-02 0.430E-02
   -.271E+01 -.161E+02 -.924E+01   0.271E+01 0.105E+02 0.111E+02   -.102E+00 0.362E+01 -.953E+00   -.152E-02 -.266E-02 0.287E-04
   0.329E+02 0.236E+02 0.137E+03   -.281E+02 -.209E+02 -.137E+03   -.291E+01 -.178E+01 0.332E+00   0.730E-03 -.111E-02 0.161E-02
   -.138E+02 0.193E+02 0.626E+02   0.892E+01 -.163E+02 -.615E+02   0.299E+01 -.150E+01 -.620E+00   -.621E-02 -.123E-02 0.524E-03
   0.492E+02 -.114E+02 0.475E+02   -.503E+02 0.122E+02 -.475E+02   0.191E+01 -.783E+00 0.330E+00   -.639E-03 0.668E-06 0.845E-03
   0.374E+01 0.571E+02 0.152E+03   -.441E+01 -.583E+02 -.153E+03   0.142E+00 0.170E+01 0.116E+01   0.549E-02 -.601E-02 -.131E-02
   -.487E+02 -.443E+02 -.714E+02   0.497E+02 0.449E+02 0.713E+02   -.180E+01 -.100E+01 -.386E+00   0.218E-02 -.202E-02 0.143E-02
   -.259E+02 -.246E+02 -.102E+03   0.264E+02 0.196E+02 0.101E+03   -.590E-03 0.295E+01 0.505E+00   0.864E-03 0.329E-02 0.548E-03
   0.114E+02 0.637E+00 -.797E+02   -.608E+01 0.243E+01 0.783E+02   -.322E+01 -.159E+01 0.283E+00   -.390E-03 -.257E-02 0.100E-02
   -.256E+02 -.702E+01 -.647E+02   0.204E+02 0.104E+02 0.632E+02   0.315E+01 -.184E+01 0.751E+00   0.303E-02 -.452E-02 0.299E-02
   0.553E+02 -.529E+02 0.985E+02   -.570E+02 0.531E+02 -.981E+02   0.175E+01 -.128E+01 -.302E-01   -.233E-02 0.680E-02 0.233E-03
   -.776E+01 0.327E+02 -.137E+03   0.772E+01 -.344E+02 0.137E+03   0.213E-03 0.230E+01 -.117E+01   -.163E-02 -.119E-02 0.115E-03
   -.636E+02 -.194E+02 -.442E+02   0.651E+02 0.195E+02 0.446E+02   -.195E+01 -.387E+00 -.732E+00   -.605E-02 0.283E-02 0.102E-02
   -.111E+02 0.298E+02 0.118E+03   0.112E+02 -.306E+02 -.120E+03   -.271E+00 0.371E+00 0.208E+01   -.401E-02 0.102E-02 0.171E-03
   -.143E+03 -.207E+02 0.161E+03   0.169E+03 0.350E+02 -.171E+03   -.293E+02 -.163E+02 0.116E+02   0.351E-03 -.130E-02 0.154E-02
   0.115E+03 -.114E+03 -.172E+03   -.141E+03 0.127E+03 0.181E+03   0.293E+02 -.153E+02 -.113E+02   -.225E-02 -.117E-03 0.265E-03
   0.196E+01 0.126E+03 0.284E+03   0.229E+00 -.150E+03 -.303E+03   -.278E+01 0.275E+02 0.219E+02   -.181E-02 -.278E-03 0.465E-02
   -.306E+02 0.104E+03 0.298E+03   0.278E+02 -.127E+03 -.319E+03   0.274E+01 0.252E+02 0.242E+02   -.220E-03 -.130E-02 0.260E-02
   0.141E+03 -.723E+02 -.824E+02   -.167E+03 0.894E+02 0.822E+02   0.285E+02 -.199E+02 -.423E+00   -.524E-02 -.321E-02 -.332E-03
   -.106E+03 -.596E+02 0.183E+03   0.132E+03 0.670E+02 -.199E+03   -.284E+02 -.849E+01 0.191E+02   -.260E-02 0.207E-02 0.211E-02
   -.341E+01 -.285E-01 -.178E+02   0.352E+01 0.206E+00 0.187E+02   -.177E+00 -.958E-01 -.107E+01   0.738E-03 0.170E-04 0.225E-03
   0.130E+02 -.182E+02 -.692E+02   -.134E+02 0.185E+02 0.735E+02   0.152E+00 -.479E+00 -.475E+01   -.676E-03 -.257E-02 0.174E-02
   0.135E+01 -.463E+02 -.219E+03   0.167E+02 0.567E+02 0.238E+03   -.201E+02 -.121E+02 -.223E+02   0.952E-02 0.880E-03 -.117E-02
   0.402E+01 0.509E+02 -.544E+02   -.205E+02 -.470E+02 0.636E+02   0.192E+02 -.408E+01 -.105E+02   -.565E-02 0.101E-01 0.680E-02
   -.126E+02 0.802E+02 0.899E+02   0.153E+02 -.109E+03 -.984E+02   -.320E+01 0.324E+02 0.999E+01   -.193E-02 -.890E-02 0.743E-02
   0.447E-01 0.778E+02 0.999E+02   -.197E+01 -.106E+03 -.108E+03   0.231E+01 0.323E+02 0.101E+02   0.383E-02 -.866E-02 0.777E-02
   0.269E+02 -.451E+02 -.239E+03   -.486E+02 0.560E+02 0.254E+03   0.242E+02 -.127E+02 -.173E+02   -.540E-02 0.156E-02 -.423E-02
   -.207E-01 0.579E+02 -.779E+02   0.150E+02 -.545E+02 0.902E+02   -.174E+02 -.339E+01 -.142E+02   0.629E-02 0.383E-02 0.137E-02
   0.389E+02 0.135E+02 0.524E+02   -.424E+02 -.161E+02 -.516E+02   0.467E+01 0.312E+01 -.452E+00   0.762E-02 0.288E-02 0.364E-02
   0.108E+02 0.285E+02 0.106E+03   -.125E+02 -.302E+02 -.110E+03   0.194E+01 0.195E+01 0.508E+01   -.859E-02 -.377E-02 0.823E-03
   -.139E+03 -.758E+02 -.897E+02   0.164E+03 0.925E+02 0.901E+02   -.290E+02 -.192E+02 -.728E+00   0.414E-02 -.424E-02 0.930E-03
   0.109E+03 -.504E+02 0.142E+03   -.135E+03 0.575E+02 -.156E+03   0.296E+02 -.800E+01 0.167E+02   0.977E-03 -.100E-02 0.341E-02
   0.112E+02 0.121E+03 0.307E+03   -.644E+01 -.144E+03 -.326E+03   -.491E+01 0.259E+02 0.229E+02   0.123E-01 -.219E-02 0.421E-02
   0.455E+01 0.173E+03 0.258E+03   -.600E+01 -.203E+03 -.267E+03   0.214E+01 0.331E+02 0.107E+02   0.108E-01 -.645E-02 0.766E-03
   0.144E+03 -.215E+02 0.972E+02   -.170E+03 0.368E+02 -.102E+03   0.301E+02 -.176E+02 0.542E+01   0.179E-02 0.188E-02 0.155E-02
   -.104E+03 -.117E+03 -.210E+03   0.129E+03 0.130E+03 0.223E+03   -.277E+02 -.152E+02 -.145E+02   0.309E-02 -.230E-02 -.196E-03
   0.595E+00 -.257E+02 -.931E+01   -.486E+00 0.268E+02 0.713E+01   -.111E+00 -.138E+01 0.253E+01   -.422E-03 -.218E-02 0.395E-02
   -.126E+02 -.198E+02 -.135E+03   0.127E+02 0.214E+02 0.140E+03   0.163E+00 -.184E+01 -.640E+01   0.168E-02 -.657E-02 0.201E-02
   -.166E+03 -.472E+02 -.672E+02   0.192E+03 0.633E+02 0.675E+02   -.294E+02 -.182E+02 -.445E+00   -.729E-02 0.480E-02 0.168E-02
   0.131E+03 -.108E+03 0.220E+03   -.158E+03 0.122E+03 -.225E+03   0.305E+02 -.148E+02 0.740E+01   -.536E-03 0.117E-01 0.314E-02
   0.126E+01 0.108E+03 -.277E+03   0.272E+01 -.132E+03 0.297E+03   -.458E+01 0.270E+02 -.222E+02   -.162E-02 0.845E-04 -.186E-02
   -.266E+02 0.829E+02 -.312E+03   0.252E+02 -.105E+03 0.334E+03   0.165E+01 0.246E+02 -.255E+02   -.226E-02 -.207E-02 -.304E-02
   0.140E+03 -.933E+02 0.169E+03   -.161E+03 0.113E+03 -.180E+03   0.232E+02 -.221E+02 0.127E+02   0.245E-02 0.571E-02 0.325E-02
   -.123E+03 -.537E+02 -.135E+03   0.151E+03 0.610E+02 0.147E+03   -.309E+02 -.797E+01 -.142E+02   -.749E-02 0.369E-02 0.352E-03
   -.365E+02 0.160E+02 0.316E+02   0.389E+02 -.177E+02 -.332E+02   -.323E+01 0.224E+01 0.230E+01   -.272E-02 0.274E-02 0.346E-02
   0.333E+02 -.892E+02 -.714E+03   -.339E+02 0.985E+02 0.724E+03   0.715E+00 -.107E+02 -.117E+02   0.142E-01 0.861E-02 -.336E-03
   -.500E+02 -.114E+03 0.109E+03   0.543E+02 0.124E+03 -.121E+03   -.738E+01 -.167E+02 0.195E+02   -.178E-03 -.825E-03 -.532E-03
   0.429E+02 0.967E+02 -.638E+02   -.531E+02 -.120E+03 0.906E+02   0.132E+02 0.299E+02 -.348E+02   0.425E-03 0.209E-03 -.177E-02
   -.469E+01 -.205E+02 0.103E+02   0.256E-12 -.426E-13 -.313E-12   0.468E+01 0.205E+02 -.103E+02   0.101E-01 -.556E-02 0.793E-01

 POSITION                                       TOTAL-FORCE (eV/Angst)
     -0.01705      2.82377      7.46218         0.008887     -2.213116      0.874354
      1.39149      5.25267      7.57664         2.318193      0.333429      0.372508
     -1.45337      5.20075      7.47625        -2.345335      0.297022      0.059425
      6.55578      0.75386      8.81700         0.714273     -0.216856     -0.513230
      3.97638      5.25125      7.22382         0.233499      0.223741      0.900495
      1.35193      0.67879      7.84209        -0.687878     -0.088315      0.503530
     -4.09649      9.47060      8.44435        -0.258860     -1.859175     -1.023848
     -2.53597     11.80496      8.74018         1.861789      1.473951     -0.305508
     -5.33845     11.91380      8.68758        -1.860640      1.498816     -0.467028
      2.74266      7.21243      8.75219         1.042228      0.146267     -0.592526
      0.04493     11.70511      8.53103        -0.072547      1.086778      0.730149
     -2.90607      7.20872      8.38912        -0.904833      0.288636     -1.199255
      7.96468      2.83820      8.25289        -0.099511     -1.907970      0.910818
      9.23843      5.02579      7.00763         1.912651      0.926231      0.464805
      6.52117      5.12460      7.61603        -1.864015      1.504710      0.542772
     14.41431      0.49297      8.04761         0.779591     -0.007168      0.425200
     11.79595      4.94885      6.90499        -0.528855      0.425942      0.858581
      9.31098      0.73894      8.92538        -0.812045     -0.368753     -0.458325
      4.06590      9.34854      9.25399         0.511991     -2.065870     -1.095481
      5.38484     11.79116      9.11089         2.064480      1.473693     -1.077939
      2.57557     11.76652      9.08433        -2.010440      1.506750     -0.770345
     10.36692      7.29996      7.36035         0.011597     -1.057065      0.394741
      7.94600     11.81466      9.31240        -0.041517      0.590017     -1.096410
      5.42849      7.25985      8.54625        -0.418249     -0.305379     -0.307615
     -0.01636      4.43618      7.43762        -0.149807     -0.455012      0.303460
      1.32966      2.11032      7.36792        -3.187911     -1.987072      1.643476
      5.29252     -0.04903      9.09853         3.151886     -1.816371     -2.048329
      5.29506      4.58802      6.87944        -0.588784      2.962372      3.011278
      2.59360      4.73469      6.83441        -0.038330      2.424106      3.260799
      6.58546      2.24637      8.60253         3.135237     -2.791393     -0.578240
     -5.29276     13.14093      7.80747        -3.215627     -1.063389      2.763664
      0.01918      0.02438      8.42623        -0.071771      0.081093     -0.172480
     -3.95783     11.04127      8.72408        -0.246125     -0.147874     -0.538642
     -2.97681      8.57391      9.02381        -2.017323     -1.623128     -3.425319
      1.39086      6.47587      8.57515         2.755369     -0.252870     -1.295856
      1.38077     10.96706      8.54391        -0.482608      3.610386      1.551958
     -1.28764     10.98460      8.36693         0.383082      3.645852      1.578351
      2.76186      8.53139      9.48630         2.431167     -1.778874     -3.007440
     -1.57951      6.41740      8.46512        -2.462763     -0.089686     -1.954591
     11.68490      6.39742      7.62503         1.133890      0.589689      0.369098
      7.92685      4.25667      7.51097         0.172218      0.229912      0.627498
      9.32199      2.22567      8.63820        -3.250572     -2.569300     -0.404912
      5.27243     12.96899      8.16986         3.374264     -0.935153      2.565474
     -2.57361      4.63866      6.64716        -0.147752      2.629615      3.268997
     10.50097      4.22135      6.65958         0.704638      3.966651      1.978849
     14.39987      1.93087      7.61038         3.316463     -2.218602      0.921028
     10.51435     -0.07552      9.39476        -2.853598     -1.825182     -2.340973
      7.93663     -0.05800      8.69072        -0.002231     -0.329094      0.353738
      3.97955     10.95102      9.30444         0.260639     -0.270857     -0.757713
      5.40686      8.72613      8.93278        -3.535712     -2.026308     -0.182740
      9.13401      6.57424      6.93691         3.893094     -1.141596      2.065687
     -6.48073     11.36912      9.55202        -0.594750      2.915674     -2.976119
      6.61973     11.27549      9.84909         0.182934      2.304091     -3.506554
     -5.27718      9.02871      7.60052         2.928219     -2.317749      1.882145
      6.65810      6.40482      8.44297        -3.804040     -0.669754     -2.049127
      4.02046      6.58026      8.15810        -0.845012      0.562995      0.701127
     -0.15269      7.84225      9.70793         0.116463     -1.298133     -1.738646
     -0.15269      7.84225     16.52513        -3.039705     -6.873208      7.998849
     -0.51865      7.01479      0.38881         3.040406      6.871859     -7.997663
    total drift:                               -0.001866     -0.009001     -0.006495

  FREE ENERGIE OF THE ION-ELECTRON SYSTEM (eV)
  free  energy   TOTEN  =      -447.57369298 eV

  energy  without entropy=     -447.57369298  energy(sigma->0) =     -447.57369298

 total charge

[...]

 magnetization (x)

# of ion       s       p       d       tot
    1       -0.000  -0.000   0.000  -0.000
    2        0.000  -0.000   0.000  -0.000
    3       -0.000   0.000   0.000   0.000
    4       -0.000  -0.000   0.000  -0.000
    5        0.000  -0.000   0.000  -0.000
    6       -0.000  -0.000   0.000  -0.000
    7       -0.000  -0.000   0.000  -0.000
    8       -0.000  -0.000   0.000  -0.000
    9       -0.000  -0.000   0.000  -0.000
   10       -0.000   0.000   0.000   0.000
   11        0.000  -0.000   0.000  -0.000
   12        0.000   0.000   0.000   0.000
   13       -0.000  -0.000   0.000  -0.000
   14       -0.000  -0.000   0.000  -0.000
   15       -0.000  -0.000   0.000  -0.001
   16       -0.000  -0.000   0.000  -0.000
   17       -0.000  -0.000   0.000  -0.000
   18       -0.000  -0.000   0.000  -0.000
   19       -0.000  -0.000   0.000  -0.000
   20       -0.000  -0.000   0.000  -0.000
   21       -0.000  -0.000   0.000  -0.000
   22       -0.000  -0.000   0.000  -0.000
   23        0.000   0.000   0.000   0.000
   24       -0.000  -0.000   0.000  -0.000
   25        0.000   0.000   0.000   0.000
   26       -0.000  -0.000   0.000  -0.000
   27       -0.000   0.000   0.000   0.000
   28        0.000   0.000   0.000   0.000
   29        0.000   0.000   0.000   0.000
   30       -0.000   0.000   0.000  -0.000
   31       -0.000   0.000   0.000   0.000
   32       -0.000  -0.000   0.000  -0.000
   33       -0.000  -0.000   0.000  -0.000
   34        0.000   0.000   0.000   0.000
   35       -0.000  -0.000   0.000  -0.000
   36        0.000  -0.000   0.000  -0.000
   37        0.000   0.000   0.000   0.000
   38       -0.000  -0.000   0.000  -0.000
   39       -0.000  -0.000   0.000  -0.000
   40       -0.000  -0.000   0.000  -0.000
   41        0.000   0.000   0.000   0.000
   42       -0.000   0.000   0.000   0.000
   43       -0.000   0.000   0.000   0.000
   44       -0.000   0.000   0.000  -0.000
   45       -0.000   0.000   0.000   0.000
   46       -0.000   0.000   0.000   0.000
   47       -0.000   0.000   0.000   0.000
   48       -0.000  -0.000   0.000  -0.000
   49        0.000   0.000   0.000   0.000
   50       -0.000   0.000   0.000   0.000
   51       -0.000   0.000   0.000   0.000
   52       -0.000  -0.000   0.000  -0.000
   53       -0.000  -0.000   0.000  -0.000
   54       -0.000   0.000   0.000   0.000
   55        0.000   0.000   0.000   0.000
   56       -0.000  -0.000   0.000  -0.000
   57        0.000   0.002   0.000   0.002
   58        0.000   0.000   0.000   0.000
   59       -0.000  -0.000   0.000  -0.000
tot         -0.000  -0.001   0.000  -0.001

 BZINTS: Fermi energy: -3.716179;280.000000 electrons
         Band energy:***********;  BLOECHL correction:  0.000000