 vasp.5.4.4.18Apr17-6-g9f103f2a35 (build Jan 14 2022 15:04:31) complex

 executed on             LinuxIFC date 2023.01.23  17:52:24

 INCAR:
 POTCAR:    PAW_PBE C 08Apr2002
 POTCAR:    PAW_PBE N 08Apr2002
 POTCAR:    PAW_PBE C 08Apr2002
 POTCAR:    PAW_PBE Cr_pv 02Aug2007
 POTCAR:    PAW_PBE C 08Apr2002
   VRHFIN =C: s2p2

   TITEL  = PAW_PBE C 08Apr2002
   POMASS =   12.011; ZVAL   =    4.000    mass and valenz
   ENMAX  =  400.000; ENMIN  =  300.000 eV

[...]

   TITEL  = PAW_PBE C 08Apr2002
   POMASS =   12.011; ZVAL   =    4.000    mass and valenz
   ENMAX  =  400.000; ENMIN  =  300.000 eV

   TITEL  = PAW_PBE Cr_pv 02Aug2007
   POMASS =   51.996; ZVAL   =   12.000    mass and valenz
   ENMAX  =  265.681; ENMIN  =  199.261 eV

 Optimization of the real space projectors (new method)

 maximal supplied QI-value         = 25.13
 optimisation between [QCUT,QGAM] = [ 10.56, 21.36] = [ 31.20,127.80] Ry
 Optimized for a Real-space Cutoff    1.32 Angstroem

   l    n(q)    QCUT    max X(q) W(low)/X(q) W(high)/X(q)  e(spline)
   0      8    10.556   115.676    0.17E-03    0.39E-03    0.26E-06
   0      8    10.556    87.132    0.17E-03    0.39E-03    0.26E-06
   1      8    10.556     4.429    0.24E-03    0.31E-03    0.16E-06
   1      8    10.556     2.733    0.17E-03    0.22E-03    0.19E-06
 Optimization of the real space projectors (new method)

[...]

   l    n(q)    QCUT    max X(q) W(low)/X(q) W(high)/X(q)  e(spline)
   0      8    10.556   115.676    0.17E-03    0.39E-03    0.26E-06
   0      8    10.556    87.132    0.17E-03    0.39E-03    0.26E-06
   1      8    10.556     4.429    0.24E-03    0.31E-03    0.16E-06
   1      8    10.556     2.733    0.17E-03    0.22E-03    0.19E-06
 Optimization of the real space projectors (new method)

 maximal supplied QI-value         = 16.25
 optimisation between [QCUT,QGAM] = [ 10.73, 21.45] = [ 32.22,128.87] Ry
 Optimized for a Real-space Cutoff    1.53 Angstroem

   l    n(q)    QCUT    max X(q) W(low)/X(q) W(high)/X(q)  e(spline)
   1      9    10.726     3.262    0.64E-04    0.35E-04    0.11E-06
   1      9    10.726     5.741    0.13E-03    0.48E-04    0.19E-06
   2      9    10.726    60.438    0.12E-03    0.29E-04    0.13E-06
   2      9    10.726    55.380    0.12E-03    0.29E-04    0.13E-06
   0     10    10.726    80.273    0.43E-04    0.74E-05    0.81E-07
   0     10    10.726    36.654    0.34E-04    0.61E-05    0.73E-07
  PAW_PBE C 08Apr2002                   :
  PAW_PBE N 08Apr2002                   :
  PAW_PBE C 08Apr2002                   :
  PAW_PBE Cr_pv 02Aug2007               :

 POSCAR: POSCAR-clean
  positions in direct lattice
  velocities in cartesian coordinates
 exchange correlation table for  LEXCH =        8
   RHO(1)=    0.500       N(1)  =     2000
   RHO(2)=  100.500       N(2)  =     4000

 VTST: version 3.2, (02/03/18)

 CHAIN: initializing optimizer

 OPT: Using VASP Conjugate-Gradient optimizer
 CHAIN: Read ICHAIN            0

 POSCAR: POSCAR-clean
  positions in direct lattice
  velocities in cartesian coordinates

 ion  position               nearest neighbor table
   1  1.000  1.000  0.498-   2 1.42  60 1.43  70 1.44
   2  0.056  0.111  0.498-   1 1.42  13 1.42  15 1.44
   3  0.168  0.002  0.497-   4 1.42  62 1.43  60 1.43
   4  0.224  0.114  0.498-   3 1.42  15 1.43  17 1.44
   5  0.334  0.003  0.498-   6 1.42  62 1.43  64 1.43
   6  0.390  0.114  0.498-   5 1.42  19 1.42  17 1.44
   7  0.500  0.000  0.497-   8 1.42  64 1.42  66 1.43
   8  0.556  0.111  0.497-   7 1.42  21 1.43  19 1.43
   9  0.665  0.997  0.499-  66 1.42  10 1.42  68 1.44
  10  0.722  0.109  0.498-   9 1.42  23 1.43  21 1.43
  11  0.831  0.997  0.499-  70 1.43  12 1.43  68 1.44
  12  0.888  0.108  0.498-  11 1.43  23 1.43  13 1.43
  13  0.999  0.165  0.498-  14 1.42   2 1.42  12 1.43
  14  0.055  0.277  0.499-  25 1.42  13 1.42  27 1.43
  15  0.168  0.169  0.499-   4 1.43  16 1.43   2 1.44
  16  0.224  0.281  0.500-  15 1.43  27 1.43  29 1.45
  17  0.336  0.171  0.500-  18 1.42   4 1.44   6 1.44
  18  0.392  0.282  0.504-  17 1.42  31 1.44  29 1.45
  19  0.501  0.168  0.498-  20 1.42   6 1.42   8 1.43
  20  0.558  0.279  0.500-  19 1.42  33 1.43  31 1.44
  21  0.667  0.165  0.497-  22 1.42   8 1.43  10 1.43
  22  0.723  0.276  0.498-  21 1.42  35 1.42  33 1.42
  23  0.833  0.164  0.498-  24 1.42  10 1.43  12 1.43
  24  0.889  0.276  0.498-  23 1.42  35 1.42  25 1.43
  25  1.000  0.332  0.498-  14 1.42  26 1.43  24 1.43
  26  0.055  0.444  0.499-  39 1.41  37 1.42  25 1.43
  27  0.167  0.334  0.500-  28 1.42  16 1.43  14 1.43
  28  0.220  0.445  0.502-  39 1.42  27 1.42  41 1.42
  29  0.336  0.339  0.502-  30 1.42  16 1.45  18 1.45
  30  0.388  0.450  0.504-  41 1.41  29 1.42  71 1.98
  31  0.504  0.337  0.508-  32 1.41  20 1.44  18 1.44
  32  0.563  0.446  0.519-  43 1.40  31 1.41  71 1.99
  33  0.669  0.332  0.499-  34 1.42  22 1.42  20 1.43
  34  0.726  0.443  0.500-  43 1.41  33 1.42  45 1.42
  35  0.834  0.332  0.498-  22 1.42  24 1.42  36 1.43
  36  0.890  0.443  0.498-  45 1.41  37 1.42  35 1.43
  37  0.001  0.500  0.498-  36 1.42  26 1.42  38 1.42
  38  0.056  0.611  0.498-  49 1.42  47 1.42  37 1.42
  39  0.165  0.500  0.500-  26 1.41  28 1.42  40 1.42
  40  0.220  0.612  0.499-  49 1.42  51 1.42  39 1.42
  41  0.331  0.502  0.504-  30 1.41  28 1.42  42 1.45
  42  0.386  0.615  0.506-  53 1.36  51 1.40  41 1.45
  43  0.672  0.498  0.508-  32 1.40  34 1.41  44 1.44
  44  0.727  0.610  0.504-  55 1.40  57 1.41  43 1.44
  45  0.836  0.499  0.498-  36 1.41  34 1.42  46 1.42
  46  0.891  0.611  0.499-  47 1.41  57 1.42  45 1.42
  47  0.001  0.667  0.498-  46 1.41  38 1.42  48 1.43
  48  0.056  0.779  0.498-  61 1.42  59 1.43  47 1.43
  49  0.166  0.668  0.498-  40 1.42  38 1.42  50 1.42
  50  0.222  0.779  0.498-  63 1.42  49 1.42  61 1.43
  51  0.330  0.669  0.501-  42 1.40  52 1.41  40 1.42
  52  0.387  0.780  0.500-  51 1.41  65 1.42  63 1.42
  53  0.491  0.667  0.514-  42 1.36  54 1.37  71 2.05
  54  0.550  0.773  0.506-  53 1.37  65 1.43  67 1.45
  55  0.669  0.661  0.506-  44 1.40  56 1.41  71 1.99
  56  0.719  0.771  0.503-  55 1.41  67 1.45  69 1.45
  57  0.837  0.667  0.500-  44 1.41  58 1.42  46 1.42
  58  0.890  0.778  0.499-  57 1.42  59 1.43  69 1.43
  59  0.001  0.834  0.498-  60 1.42  48 1.43  58 1.43
  60  0.056  0.946  0.498-  59 1.42   1 1.43   3 1.43
  61  0.167  0.835  0.498-  62 1.42  48 1.42  50 1.43
  62  0.223  0.947  0.498-  61 1.42   3 1.43   5 1.43
  63  0.333  0.835  0.498-  64 1.42  50 1.42  52 1.42
  64  0.389  0.946  0.498-  63 1.42   7 1.42   5 1.43
  65  0.498  0.833  0.501-  66 1.42  52 1.42  54 1.43
  66  0.555  0.944  0.498-  65 1.42   9 1.42   7 1.43
  67  0.662  0.827  0.504-  68 1.43  54 1.45  56 1.45
  68  0.719  0.939  0.500-  67 1.43   9 1.44  11 1.44
  69  0.832  0.831  0.500-  70 1.43  58 1.43  56 1.45
  70  0.888  0.942  0.499-  11 1.43  69 1.43   1 1.44
  71  0.528  0.555  0.549-  30 1.98  32 1.99  55 1.99  53 2.05

IMPORTANT INFORMATION: All symmetrisations will be switched off!
NOSYMM: (Re-)initialisation of all symmetry stuff for point group C_1.

 KPOINTS: K-Points

Automatic generation of k-mesh.
Space group operators:
 irot       det(A)        alpha          n_x          n_y          n_z        tau_x        tau_y        tau_z
    1     1.000000     0.000000     1.000000     0.000000     0.000000     0.000000     0.000000     0.000000

 Subroutine IBZKPT returns following result:

 Found      4 irreducible k-points:

 Following reciprocal coordinates:
            Coordinates               Weight
  0.000000  0.000000  0.000000      1.000000
  0.500000 -0.000000  0.000000      1.000000
  0.000000  0.500000  0.000000      1.000000
  0.500000  0.500000  0.000000      1.000000

 Following cartesian coordinates:
            Coordinates               Weight
  0.000000  0.000000  0.000000      1.000000
  0.033635  0.019597  0.000000      1.000000
  0.000159  0.039193  0.000000      1.000000
  0.033794  0.058790  0.000000      1.000000

 SYSTEM =  unknown system
 POSCAR =  POSCAR-clean

 Startparameter for this run:
   NWRITE =      2    write-flag & timer
   PREC   = accura    normal or accurate (medium, high low for compatibility)
   ISTART =      0    job   : 0-new  1-cont  2-samecut
   ICHARG =      2    charge: 1-file 2-atom 10-const
   ISPIN  =      2    spin polarized calculation?
   LNONCOLLINEAR =      F non collinear calculations
   LSORBIT =      F    spin-orbit coupling
   INIWAV =      1    electr: 0-lowe 1-rand  2-diag
   LASPH  =      F    aspherical Exc in radial PAW
   METAGGA=      F    non-selfconsistent MetaGGA calc.

 Electronic Relaxation 1
   ENCUT  =  440.0 eV  32.34 Ry    5.69 a.u.  25.49 25.31 25.66*2*pi/ulx,y,z
   ENINI  =  440.0     initial cutoff
   ENAUG  =  644.9 eV  augmentation charge cutoff
   NELM   =     50;   NELMIN=  2; NELMDL= -5     # of ELM steps
   EDIFF  = 0.1E-04   stopping-criterion for ELM
   LREAL  =      T    real-space projection
   NLSPLINE    = F    spline interpolate recip. space projectors
   LCOMPAT=      F    compatible to vasp.4.4
   GGA_COMPAT  = T    GGA compatible to vasp.4.4-vasp.4.6
   LMAXPAW     = -100 max onsite density
   LMAXMIX     =    2 max onsite mixed and CHGCAR
   VOSKOWN=      0    Vosko Wilk Nusair interpolation
   ROPT   =   -0.00025  -0.00025  -0.00025  -0.00025
 Ionic relaxation
   EDIFFG = -.5E-01   stopping-criterion for IOM
   NSW    =    400    number of steps for IOM
   NBLOCK =      1;   KBLOCK =    400    inner block; outer block
   IBRION =      2    ionic relax: 0-MD 1-quasi-New 2-CG
   NFREE  =      1    steps in history (QN), initial steepest desc. (CG)
   ISIF   =      2    stress and relaxation
   IWAVPR =     11    prediction:  0-non 1-charg 2-wave 3-comb
   ISYM   =      0    0-nonsym 1-usesym 2-fastsym
   LCORR  =      T    Harris-Foulkes like correction to forces

   POTIM  = 0.3000    time-step for ionic-motion
   TEIN   =    0.0    initial temperature
   TEBEG  =    0.0;   TEEND  =   0.0 temperature during run
   SMASS  =  -3.00    Nose mass-parameter (am)
   estimated Nose-frequenzy (Omega)   =  0.10E-29 period in steps =****** mass=  -0.507E-26a.u.
   SCALEE = 1.0000    scale energy and forces
   NPACO  =    256;   APACO  = 16.0  distance and # of slots for P.C.
   PSTRESS=    0.0 pullay stress

  Mass of Ions in am
   POMASS =  12.01 14.00 12.01 52.00
  Ionic Valenz
   ZVAL   =   4.00  5.00  4.00 12.00
  Atomic Wigner-Seitz radii
  virtual crystal weights
   VCA    =   1.00  1.00  1.00  1.00
   NELECT =     293.0000    total number of electrons
   NUPDOWN=      -1.0000    fix difference up-down

 DOS related values:
   EMIN   =  10.00;   EMAX   =-10.00  energy-range for DOS
   EFERMI =   0.00
   ISMEAR =     0;   SIGMA  =   0.10  broadening in eV -4-tet -1-fermi 0-gaus

 Electronic relaxation 2 (details)
   IALGO  =     68    algorithm
   LDIAG  =      T    sub-space diagonalisation (order eigenvalues)
   LSUBROT=      F    optimize rotation matrix (better conditioning)
   TURBO    =      0    0=normal 1=particle mesh
   IRESTART =      0    0=no restart 2=restart with 2 vectors
   NREBOOT  =      0    no. of reboots
   NMIN     =      0    reboot dimension
[...]
      direct lattice vectors                 reciprocal lattice vectors
    14.900557007 -0.060417792  0.000000000     0.067270503  0.039193260  0.000000000
    -7.450278504 12.787504481  0.000000000     0.000317836  0.078386520  0.000000000
     0.000000000  0.000000000 15.000000000     0.000000000  0.000000000  0.066666667

  length of vectors
    14.900679496 14.799558123 15.000000000     0.077855200  0.078387164  0.066666667

 FORCES acting on ions
    electron-ion (+dipol)            ewald-force                    non-local-force                 convergence-correction
   0.210E+01 0.301E-01 0.683E+01   -.213E+01 -.345E-01 -.685E+01   0.581E-01 -.444E-02 0.269E-01   0.298E-05 -.285E-03 0.193E-03
   -.247E+01 -.132E+00 0.618E+01   0.253E+01 0.151E+00 -.618E+01   -.463E-01 -.376E-01 -.263E-02   0.227E-03 0.994E-04 0.180E-03
   0.967E+00 -.513E+00 0.845E+01   -.103E+01 0.631E+00 -.849E+01   0.695E-01 -.116E+00 0.528E-01   0.364E-03 0.343E-03 0.217E-03
   -.180E+01 0.470E+00 0.843E+01   0.185E+01 -.340E+00 -.848E+01   -.479E-01 -.162E+00 0.531E-01   0.123E-02 0.105E-02 0.239E-03
   0.227E+01 0.166E+00 0.680E+01   -.231E+01 0.466E-01 -.682E+01   0.619E-01 -.223E+00 0.885E-02   -.167E-03 0.405E-03 0.138E-03
   0.488E+01 -.741E+00 0.773E+01   -.492E+01 0.944E+00 -.766E+01   0.372E-01 -.227E+00 -.565E-01   -.886E-03 0.130E-02 0.266E-03
   -.839E+00 -.358E+00 0.985E+01   0.837E+00 0.486E+00 -.989E+01   0.533E-02 -.131E+00 0.291E-01   0.436E-03 -.553E-03 0.148E-03
   0.148E+01 -.279E+01 0.114E+02   -.155E+01 0.297E+01 -.115E+02   0.979E-01 -.173E+00 0.553E-01   -.212E-03 0.201E-03 0.194E-03
   -.567E+01 -.327E+01 0.631E+01   0.582E+01 0.335E+01 -.628E+01   -.160E+00 -.685E-01 -.244E-01   0.102E-02 -.193E-02 0.228E-03
   -.148E+01 -.133E+01 0.656E+01   0.149E+01 0.135E+01 -.658E+01   -.259E-01 -.330E-01 0.622E-02   0.289E-03 -.529E-03 0.127E-03
   0.187E+01 -.129E+01 0.675E+01   -.186E+01 0.128E+01 -.677E+01   -.493E-02 0.166E-01 0.247E-01   -.152E-02 -.124E-02 0.237E-03
   -.178E+01 0.158E+00 0.796E+01   0.178E+01 -.218E+00 -.799E+01   -.920E-02 0.795E-01 0.515E-01   -.374E-03 -.257E-03 0.262E-03
   0.192E+01 0.365E+01 0.737E+01   -.196E+01 -.371E+01 -.738E+01   0.141E-01 0.726E-01 0.298E-01   0.139E-03 -.116E-03 0.240E-03
   0.127E+00 0.471E+01 0.575E+01   -.116E+00 -.479E+01 -.578E+01   -.371E-01 0.796E-01 0.211E-01   0.140E-02 0.547E-03 0.155E-03
   0.271E+01 0.476E+01 0.590E+01   -.269E+01 -.465E+01 -.588E+01   -.472E-02 -.117E+00 -.355E-01   0.527E-03 0.846E-03 0.195E-03
   -.114E+01 0.909E+01 0.810E+01   0.168E+01 -.890E+01 -.817E+01   -.525E+00 -.198E+00 0.578E-01   0.174E-02 0.157E-02 0.357E-03
   0.145E+01 0.729E+01 0.733E+01   -.143E+01 -.680E+01 -.736E+01   -.275E-01 -.511E+00 0.323E-01   0.162E-03 0.134E-02 0.274E-03
   0.270E+01 0.554E+01 0.408E+00   -.242E+01 -.468E+01 0.812E-02   -.289E+00 -.912E+00 -.414E+00   0.388E-03 0.577E-02 0.781E-03
   -.934E+00 0.584E+01 0.134E+02   0.878E+00 -.558E+01 -.134E+02   0.501E-01 -.259E+00 0.869E-01   -.440E-03 0.998E-03 0.423E-03
   0.159E+01 0.676E+01 0.124E+02   -.216E+01 -.634E+01 -.125E+02   0.584E+00 -.444E+00 0.214E+00   -.159E-02 0.165E-02 0.751E-03
   -.235E+01 0.413E+01 0.864E+01   0.238E+01 -.412E+01 -.863E+01   -.646E-02 -.829E-02 -.214E-01   -.472E-03 0.975E-04 0.125E-03
   -.263E+01 0.293E+01 0.973E+01   0.251E+01 -.287E+01 -.975E+01   0.112E+00 -.449E-01 0.221E-01   -.101E-02 0.362E-03 0.168E-03
   -.148E+01 0.254E+01 0.597E+01   0.152E+01 -.254E+01 -.595E+01   -.509E-01 0.896E-02 -.179E-01   -.127E-03 -.638E-03 0.171E-03
   -.114E+01 0.242E+01 0.543E+01   0.107E+01 -.247E+01 -.546E+01   0.344E-01 0.517E-01 0.105E-01   -.773E-04 0.425E-03 0.128E-03
   0.133E+01 0.424E+01 0.460E+01   -.131E+01 -.432E+01 -.459E+01   -.279E-01 0.970E-01 0.258E-02   -.416E-03 0.836E-03 0.158E-03
   0.452E+01 0.579E+01 0.376E+01   -.456E+01 -.586E+01 -.378E+01   0.406E-01 0.829E-01 0.128E-01   -.258E-04 0.212E-03 0.125E-03
   0.466E+01 0.120E+02 0.527E+01   -.445E+01 -.121E+02 -.529E+01   -.225E+00 0.961E-01 -.130E-01   0.814E-03 0.107E-02 0.151E-03
   0.117E+02 0.105E+02 0.341E+01   -.116E+02 -.105E+02 -.346E+01   -.661E-01 0.277E-01 0.372E-01   0.265E-02 0.209E-02 0.387E-03
   -.339E+01 0.216E+02 0.162E+02   0.371E+01 -.208E+02 -.164E+02   -.325E+00 -.771E+00 0.180E+00   0.525E-02 0.349E-02 0.140E-02
   -.677E+01 0.435E+02 0.561E+02   0.137E+02 -.400E+02 -.559E+02   -.702E+01 -.347E+01 -.195E+00   0.162E-01 0.143E-01 0.620E-02
   0.412E+01 0.216E+02 -.596E+01   -.420E+01 -.202E+02 0.603E+01   0.949E-01 -.139E+01 -.497E-01   -.506E-02 0.520E-02 0.794E-03
   0.124E+00 0.407E+02 -.403E+02   -.749E+01 -.363E+02 0.424E+02   0.741E+01 -.439E+01 -.208E+01   -.158E-01 0.143E-01 0.298E-02
   -.445E+01 0.106E+02 0.108E+02   0.420E+01 -.106E+02 -.106E+02   0.239E+00 0.263E-02 -.140E+00   -.130E-02 0.153E-02 0.651E-03
   -.121E+02 0.627E+01 0.156E+02   0.117E+02 -.617E+01 -.159E+02   0.476E+00 -.114E+00 0.331E+00   -.256E-02 0.118E-02 0.112E-02
   -.270E+01 0.302E+01 0.684E+01   0.263E+01 -.306E+01 -.682E+01   0.445E-01 0.638E-01 -.433E-01   -.101E-03 0.587E-03 0.103E-03
   -.343E+01 0.499E+01 0.890E+01   0.334E+01 -.506E+01 -.895E+01   0.837E-01 0.596E-01 0.386E-01   -.611E-04 -.167E-03 0.964E-04
   -.627E+00 0.108E+01 0.523E+01   0.583E+00 -.109E+01 -.525E+01   0.555E-01 -.805E-02 0.688E-02   0.240E-03 -.743E-04 0.899E-04
   0.186E+01 -.250E-01 0.498E+01   -.199E+01 -.638E-01 -.499E+01   0.121E+00 0.613E-01 -.880E-02   0.221E-03 -.192E-03 0.957E-04
   0.662E+01 0.355E+01 0.255E+01   -.665E+01 -.373E+01 -.246E+01   0.226E-01 0.190E+00 -.928E-01   0.178E-02 0.125E-02 0.216E-03
   0.965E+01 0.194E+01 0.853E+01   -.998E+01 -.226E+01 -.861E+01   0.354E+00 0.321E+00 0.851E-01   0.234E-02 -.663E-03 0.302E-03
   0.304E+02 0.165E+02 0.180E+02   -.295E+02 -.178E+02 -.187E+02   -.888E+00 0.129E+01 0.662E+00   0.610E-02 0.809E-02 0.199E-02
   0.529E+02 0.153E+02 0.107E+02   -.562E+02 -.175E+02 -.113E+02   0.328E+01 0.221E+01 0.643E+00   0.743E-02 -.513E-02 0.159E-02
   -.256E+02 0.691E+01 0.277E+01   0.244E+02 -.761E+01 -.274E+01   0.119E+01 0.688E+00 -.113E-01   -.782E-02 0.555E-02 0.186E-02
   -.262E+02 -.709E+01 0.162E+02   0.253E+02 0.711E+01 -.165E+02   0.889E+00 -.471E-01 0.251E+00   -.612E-02 -.640E-02 0.198E-02
   -.612E+01 -.333E+00 0.130E+02   0.596E+01 0.244E+00 -.131E+02   0.153E+00 0.999E-01 0.969E-01   -.209E-02 0.716E-03 0.379E-03
   -.421E+01 -.686E+00 0.722E+01   0.411E+01 0.641E+00 -.716E+01   0.129E+00 0.507E-01 -.706E-01   -.150E-02 -.104E-02 0.233E-03
   -.376E+01 -.525E+01 0.507E+01   0.369E+01 0.523E+01 -.510E+01   0.641E-01 0.349E-01 0.148E-01   -.321E-03 -.280E-03 0.917E-04
   -.158E+00 -.382E+01 0.528E+01   0.223E-01 0.382E+01 -.527E+01   0.135E+00 0.824E-02 -.142E-01   0.349E-03 -.488E-03 0.118E-03
   0.521E+01 -.416E+01 0.704E+01   -.532E+01 0.412E+01 -.706E+01   0.124E+00 0.298E-01 0.257E-01   0.432E-03 0.545E-04 0.152E-03
   0.535E+01 -.372E+01 0.603E+01   -.545E+01 0.376E+01 -.602E+01   0.107E+00 -.173E-01 -.111E-01   0.872E-04 -.451E-03 0.156E-03
   0.233E+02 -.397E+01 0.122E+02   -.239E+02 0.393E+01 -.124E+02   0.588E+00 0.444E-01 0.194E+00   0.388E-02 -.168E-02 0.700E-03
   0.119E+02 -.144E+02 0.743E+01   -.121E+02 0.148E+02 -.731E+01   0.224E+00 -.325E+00 -.108E+00   0.142E-02 -.122E-02 0.416E-03
   -.150E+02 -.375E+02 -.167E+02   0.339E+02 0.266E+02 0.190E+02   -.189E+02 0.109E+02 -.225E+01   0.224E-01 -.201E-01 0.419E-02
   -.115E+02 -.545E+02 0.139E+01   0.121E+02 0.584E+02 -.184E+01   -.666E+00 -.394E+01 0.447E+00   0.488E-02 -.473E-02 0.794E-03
   -.172E+00 -.338E+02 0.434E+02   -.624E+01 0.297E+02 -.427E+02   0.644E+01 0.408E+01 -.647E+00   -.159E-01 -.140E-01 0.574E-02
   -.152E+01 -.237E+02 0.146E+02   0.165E+01 0.226E+02 -.148E+02   -.104E+00 0.109E+01 0.274E+00   -.553E-02 -.391E-02 0.124E-02
   -.133E+02 -.767E+01 0.993E+01   0.130E+02 0.755E+01 -.100E+02   0.291E+00 0.135E+00 0.780E-01   -.317E-02 -.213E-02 0.464E-03
   -.378E+01 -.119E+02 0.829E+01   0.352E+01 0.119E+02 -.831E+01   0.257E+00 0.222E-01 -.866E-02   -.123E-02 -.751E-03 0.163E-03
   -.129E+01 -.407E+01 0.744E+01   0.119E+01 0.410E+01 -.747E+01   0.118E+00 -.241E-01 0.276E-01   -.121E-02 -.300E-03 0.138E-03
   -.111E+01 -.479E+01 0.778E+01   0.110E+01 0.484E+01 -.779E+01   0.226E-01 -.405E-01 0.198E-01   -.397E-03 0.172E-03 0.214E-03
   0.120E+01 -.293E+01 0.542E+01   -.130E+01 0.299E+01 -.544E+01   0.129E+00 -.782E-01 0.104E-01   0.403E-03 -.507E-03 0.131E-03
   0.162E+01 -.360E+01 0.591E+01   -.165E+01 0.369E+01 -.589E+01   0.566E-01 -.952E-01 -.271E-01   0.188E-04 0.510E-03 0.142E-03
   0.556E+01 -.512E+01 0.718E+01   -.584E+01 0.537E+01 -.721E+01   0.281E+00 -.256E+00 0.352E-01   0.187E-02 -.104E-02 0.183E-03
   0.390E+01 -.630E+01 0.725E+01   -.398E+01 0.650E+01 -.725E+01   0.828E-01 -.215E+00 -.193E-01   0.763E-03 -.940E-04 0.116E-03
   0.209E+01 -.180E+02 0.102E+02   -.202E+01 0.185E+02 -.103E+02   -.837E-01 -.457E+00 0.129E+00   0.196E-02 -.209E-02 0.486E-03
   0.191E+01 -.105E+02 0.105E+02   -.180E+01 0.109E+02 -.105E+02   -.107E+00 -.415E+00 0.572E-01   0.708E-03 -.153E-02 0.284E-03
   -.855E+01 -.125E+02 0.161E+01   0.936E+01 0.122E+02 -.146E+01   -.812E+00 0.364E+00 -.154E+00   -.166E-02 -.614E-02 0.778E-03
   -.410E+01 -.819E+01 0.511E+01   0.413E+01 0.799E+01 -.513E+01   -.564E-01 0.214E+00 0.237E-01   -.774E-03 -.125E-02 0.244E-03
   0.812E+00 -.847E+01 0.784E+01   -.121E+01 0.823E+01 -.791E+01   0.405E+00 0.220E+00 0.523E-01   -.134E-02 -.155E-02 0.279E-03
   -.316E+01 -.563E+01 0.576E+01   0.314E+01 0.551E+01 -.573E+01   0.387E-01 0.111E+00 -.334E-01   -.412E-03 -.933E-03 0.176E-03
   -.185E+02 0.156E+02 -.555E+03   0.225E+02 -.192E+02 0.542E+03   -.395E+01 0.366E+01 0.132E+02   -.208E-02 -.123E-02 -.213E-01
   0.939E+01 -.685E+01 -.112E+02   0.348E-12 -.238E-12 0.000E+00   -.939E+01 0.686E+01 0.112E+02   0.647E-02 -.755E-02 0.252E-01

 POSITION                                       TOTAL-FORCE (eV/Angst)
      7.44694     12.72295      7.46887         0.025713     -0.008409      0.004759
      0.00067      1.42029      7.47085         0.014318     -0.019505      0.001389
      2.48135      0.02063      7.46070         0.005902      0.004220      0.014863
      2.48380      1.44549      7.47366         0.005219     -0.030728      0.002894
      4.95904      0.01316      7.46397         0.016962     -0.008165     -0.010584
      4.96758      1.43329      7.47400        -0.003663     -0.022043      0.012914
      7.44590     -0.02857      7.45854         0.003963     -0.001447     -0.008308
      7.45522      1.38775      7.45333         0.024199      0.003554     -0.005630
      2.48528     12.71027      7.47953        -0.004567      0.000526      0.005834
      9.94391      1.34559      7.46467        -0.007264     -0.007813     -0.015439
      4.96157     12.69390      7.47939         0.006688      0.001508      0.005804
     12.41842      1.33254      7.46425        -0.017174      0.018040      0.023676
     13.65745      2.05425      7.46700        -0.022874      0.014914      0.019763
     -1.24314      3.53902      7.47849        -0.024390      0.001056     -0.002612
      1.24211      2.14591      7.48235         0.015641     -0.004808     -0.009457
      1.24482      3.57377      7.50204         0.024906     -0.005132     -0.011021
      3.72859      2.16717      7.49555        -0.014870     -0.021585      0.001576
      3.73876      3.58598      7.55891        -0.008344     -0.030453      0.004391
      6.21895      2.11392      7.46546        -0.010193      0.007618      0.017991
      6.23198      3.53295      7.50512         0.010853     -0.026381      0.023764
      8.70933      2.06763      7.45776         0.018538      0.005937     -0.013973
      8.71990      3.48594      7.46323        -0.009438      0.013457      0.007061
     11.18472      2.05126      7.46412        -0.009059      0.004473      0.000729
     11.18788      3.47308      7.46610        -0.029608      0.006901     -0.016043
     12.42232      4.18696      7.47552        -0.002774      0.016872      0.005832
     -2.48841      5.67247      7.48362        -0.001313      0.008091     -0.006695
     -0.00674      4.26191      7.50147        -0.012741     -0.008234     -0.031668
     -0.03597      5.68231      7.52457        -0.012392      0.010723     -0.018181
      2.48591      4.31481      7.53324         0.019517      0.021257      0.007775
      2.43076      5.73374      7.55952         0.000730      0.012873     -0.006720
      5.00525      4.27621      7.61641        -0.007454      0.017736      0.020642
      5.06780      5.67554      7.78949         0.008274     -0.010466      0.018113
      7.48957      4.20412      7.48855        -0.013038      0.004763      0.027408
      7.51633      5.61898      7.50416         0.000328     -0.012428      0.012792
      9.95697      4.19005      7.46425        -0.020230      0.019861     -0.019728
      9.96112      5.61596      7.46535        -0.006163     -0.009326     -0.006258
     -3.71521      6.39172      7.47348         0.011537     -0.021382     -0.012060
     -3.72381      7.81401      7.47407        -0.000165     -0.025948     -0.014124
     -1.26828      6.38813      7.50385        -0.010068      0.003455     -0.007950
     -1.28016      7.81032      7.49061         0.018097     -0.002874      0.001679
      1.19145      6.39774      7.55659        -0.002911      0.001474     -0.009706
      1.16385      7.84493      7.59065         0.029129      0.006087     -0.000855
      6.30268      6.32229      7.61381        -0.012176     -0.016331      0.019497
      6.29000      7.76134      7.56394         0.007685     -0.025283      0.005240
      8.74144      6.33279      7.47429        -0.005875      0.010322     -0.001045
      8.73276      7.75654      7.48611         0.023728      0.007052     -0.008336
     -4.94973      8.53169      7.47588        -0.015560      0.014652     -0.015507
     -4.96597      9.95722      7.47028        -0.000344      0.015601     -0.007976
     -2.49971      8.52854      7.47419         0.012247     -0.004612      0.005236
     -2.50098      9.95270      7.46999         0.004569      0.023527     -0.001352
     -0.05921      8.53155      7.51325        -0.011663      0.001460      0.001134
     -0.03959      9.94503      7.49978        -0.023863      0.020101      0.010395
      2.35161      8.49706      7.70760        -0.028817      0.014083     -0.019596
      2.42948      9.85795      7.59313        -0.021652     -0.007583      0.001316
      5.04354      8.40796      7.58782        -0.013520     -0.008801      0.019274
      4.96665      9.81949      7.53999         0.003030      0.002438      0.005266
      7.50457      8.47319      7.50674        -0.003185      0.019025     -0.017687
      7.46413      9.88959      7.49012         0.004971      0.027174     -0.022931
     -6.20155     10.66805      7.47019         0.012587      0.015368     -0.004450
     -6.20694     12.08905      7.46303         0.014366      0.011667      0.011040
     -3.73350     10.67096      7.46595         0.027058     -0.016597     -0.011092
     -3.73234     12.09292      7.46316         0.018657     -0.005698     -0.007584
     -1.26842     10.66136      7.47359         0.003036     -0.008600      0.001244
     -1.25675     12.07921      7.46367         0.002605     -0.012665     -0.014636
      1.21420     10.61615      7.50997        -0.004137      0.001879      0.017923
      1.23364     12.03408      7.47439         0.005314     -0.010377      0.012644
      3.70709     10.53791      7.55491        -0.001982      0.010458      0.005204
      3.71616     11.96640      7.50165        -0.027149      0.010483      0.006061
      6.20728     10.57003      7.50180        -0.000021     -0.012272     -0.014999
      6.20512     11.99660      7.48319         0.012027     -0.013473     -0.006292
      3.72291      7.06993      8.23420         0.008242      0.008734      0.017368
    total drift:                                0.004367      0.002953      0.001133

  FREE ENERGIE OF THE ION-ELECTRON SYSTEM (eV)
  free  energy   TOTEN  =      -655.37436798 eV

  energy  without entropy=     -655.34117079  energy(sigma->0) =     -655.35776939

 d Force = 0.2432024E-04[-0.279E-05, 0.514E-04]  d Energy = 0.4583640E-04-0.215E-04
 d Force =-0.2084896E+00[-0.209E+00,-0.208E+00]  d Ewald  =-0.2084895E+00-0.114E-06

 stress matrix after NEB project (eV)
     -1.95067      0.25606     -0.00220
      0.25606     -1.94153      0.00156
     -0.00220      0.00156     -3.46731
  FORCES: max atom, RMS     0.037587    0.023982
  FORCE total and by dimension    0.202075    0.031668
  Stress total and by dimension    4.441630    3.467313

 reached required accuracy - stopping structural energy minimisation