 vasp.5.4.4.18Apr17-6-g9f103f2a35 (build Jan 14 2022 15:04:31) complex

 executed on             LinuxIFC date 2023.01.23  17:52:24

 INCAR:
 POTCAR:    PAW_PBE C 08Apr2002
 POTCAR:    PAW_PBE N 08Apr2002
 POTCAR:    PAW_PBE C 08Apr2002
 POTCAR:    PAW_PBE Cr_pv 02Aug2007
 POTCAR:    PAW_PBE C 08Apr2002
   VRHFIN =C: s2p2

   TITEL  = PAW_PBE C 08Apr2002
   POMASS =   12.011; ZVAL   =    4.000    mass and valenz
   ENMAX  =  400.000; ENMIN  =  300.000 eV

[...]

   TITEL  = PAW_PBE C 08Apr2002
   POMASS =   12.011; ZVAL   =    4.000    mass and valenz
   ENMAX  =  400.000; ENMIN  =  300.000 eV

   TITEL  = PAW_PBE Cr_pv 02Aug2007
   POMASS =   51.996; ZVAL   =   12.000    mass and valenz
   ENMAX  =  265.681; ENMIN  =  199.261 eV

 Optimization of the real space projectors (new method)

 maximal supplied QI-value         = 25.13
 optimisation between [QCUT,QGAM] = [ 10.56, 21.36] = [ 31.20,127.80] Ry
 Optimized for a Real-space Cutoff    1.32 Angstroem

   l    n(q)    QCUT    max X(q) W(low)/X(q) W(high)/X(q)  e(spline)
   0      8    10.556   115.676    0.17E-03    0.39E-03    0.26E-06
   0      8    10.556    87.132    0.17E-03    0.39E-03    0.26E-06
   1      8    10.556     4.429    0.24E-03    0.31E-03    0.16E-06
   1      8    10.556     2.733    0.17E-03    0.22E-03    0.19E-06
 Optimization of the real space projectors (new method)

[...]

   l    n(q)    QCUT    max X(q) W(low)/X(q) W(high)/X(q)  e(spline)
   0      8    10.556   115.676    0.17E-03    0.39E-03    0.26E-06
   0      8    10.556    87.132    0.17E-03    0.39E-03    0.26E-06
   1      8    10.556     4.429    0.24E-03    0.31E-03    0.16E-06
   1      8    10.556     2.733    0.17E-03    0.22E-03    0.19E-06
 Optimization of the real space projectors (new method)

 maximal supplied QI-value         = 16.25
 optimisation between [QCUT,QGAM] = [ 10.73, 21.45] = [ 32.22,128.87] Ry
 Optimized for a Real-space Cutoff    1.53 Angstroem

   l    n(q)    QCUT    max X(q) W(low)/X(q) W(high)/X(q)  e(spline)
   1      9    10.726     3.262    0.64E-04    0.35E-04    0.11E-06
   1      9    10.726     5.741    0.13E-03    0.48E-04    0.19E-06
   2      9    10.726    60.438    0.12E-03    0.29E-04    0.13E-06
   2      9    10.726    55.380    0.12E-03    0.29E-04    0.13E-06
   0     10    10.726    80.273    0.43E-04    0.74E-05    0.81E-07
   0     10    10.726    36.654    0.34E-04    0.61E-05    0.73E-07
  PAW_PBE C 08Apr2002                   :
  PAW_PBE N 08Apr2002                   :
  PAW_PBE C 08Apr2002                   :
  PAW_PBE Cr_pv 02Aug2007               :

 POSCAR: POSCAR-clean
  positions in direct lattice
  velocities in cartesian coordinates
 exchange correlation table for  LEXCH =        8
   RHO(1)=    0.500       N(1)  =     2000
   RHO(2)=  100.500       N(2)  =     4000

 VTST: version 3.2, (02/03/18)

 CHAIN: initializing optimizer

 OPT: Using VASP Conjugate-Gradient optimizer
 CHAIN: Read ICHAIN            0

 POSCAR: POSCAR-clean
  positions in direct lattice
  velocities in cartesian coordinates

 ion  position               nearest neighbor table
   1  0.000  0.999  0.498-   2 1.42  60 1.43  70 1.43
   2  0.056  0.111  0.498-   1 1.42  13 1.43  15 1.43
   3  0.168  0.002  0.498-  62 1.42   4 1.42  60 1.42
   4  0.224  0.113  0.498-  15 1.42   3 1.42  17 1.43
   5  0.334  0.002  0.498-   6 1.42  64 1.43  62 1.43
   6  0.390  0.113  0.498-   5 1.42  19 1.43  17 1.43
   7  0.500  1.000  0.498-   8 1.42  64 1.42  66 1.43
   8  0.556  0.111  0.498-   7 1.42  21 1.43  19 1.43
   9  0.666  0.998  0.498-  10 1.42  66 1.42  68 1.44
  10  0.722  0.109  0.498-   9 1.42  23 1.43  21 1.43
  11  0.832  0.998  0.498-  12 1.42  70 1.42  68 1.44
  12  0.888  0.109  0.498-  11 1.42  23 1.43  13 1.43
  13  0.999  0.166  0.498-  14 1.42   2 1.43  12 1.43
  14  0.054  0.277  0.498-  13 1.42  25 1.42  27 1.43
  15  0.167  0.168  0.498-   4 1.42  16 1.42   2 1.43
  16  0.223  0.280  0.500-  15 1.42  27 1.43  29 1.44
  17  0.335  0.170  0.499-  18 1.42   6 1.43   4 1.43
  18  0.391  0.281  0.502-  17 1.42  29 1.44  31 1.44
  19  0.501  0.168  0.498-   6 1.43  20 1.43   8 1.43
  20  0.557  0.280  0.500-  33 1.43  19 1.43  31 1.44
  21  0.667  0.166  0.498-  22 1.42   8 1.43  10 1.43
  22  0.723  0.277  0.498-  21 1.42  33 1.42  35 1.42
  23  0.833  0.165  0.498-  24 1.42  10 1.43  12 1.43
  24  0.888  0.276  0.498-  23 1.42  25 1.42  35 1.42
  25  0.999  0.333  0.498-  24 1.42  14 1.42  26 1.43
  26  0.055  0.445  0.499-  39 1.41  37 1.42  25 1.43
  27  0.165  0.333  0.500-  28 1.42  16 1.43  14 1.43
  28  0.219  0.444  0.502-  41 1.41  27 1.42  39 1.42
  29  0.335  0.338  0.503-  30 1.42  18 1.44  16 1.44
  30  0.388  0.449  0.509-  41 1.41  29 1.42  71 1.99
  31  0.503  0.338  0.504-  32 1.42  18 1.44  20 1.44
  32  0.562  0.449  0.510-  43 1.41  31 1.42  71 2.00
  33  0.668  0.333  0.500-  34 1.42  22 1.42  20 1.43
  34  0.726  0.445  0.501-  43 1.41  33 1.42  45 1.43
  35  0.833  0.332  0.498-  36 1.42  24 1.42  22 1.42
  36  0.890  0.444  0.498-  45 1.41  37 1.42  35 1.42
  37  1.000  0.501  0.498-  36 1.42  38 1.42  26 1.42
  38  0.055  0.612  0.498-  47 1.40  49 1.42  37 1.42
  39  0.164  0.500  0.500-  26 1.41  40 1.42  28 1.42
  40  0.220  0.611  0.500-  49 1.42  39 1.42  51 1.42
  41  0.329  0.499  0.505-  30 1.41  28 1.41  42 1.44
  42  0.385  0.612  0.505-  53 1.41  51 1.41  41 1.44
  43  0.671  0.499  0.505-  34 1.41  32 1.41  44 1.43
  44  0.728  0.612  0.505-  55 1.41  57 1.41  43 1.43
  45  0.837  0.501  0.500-  36 1.41  46 1.42  34 1.43
  46  0.892  0.612  0.500-  47 1.40  57 1.42  45 1.42
  47  0.001  0.667  0.498-  46 1.40  38 1.40  48 1.41
  48  0.056  0.778  0.498-  47 1.41  59 1.42  61 1.42
  49  0.166  0.668  0.499-  38 1.42  40 1.42  50 1.42
  50  0.223  0.779  0.498-  63 1.42  61 1.42  49 1.42
  51  0.330  0.667  0.502-  42 1.41  52 1.42  40 1.42
  52  0.388  0.778  0.500-  51 1.42  65 1.42  63 1.43
  53  0.494  0.663  0.509-  42 1.41  54 1.41  71 1.99
  54  0.553  0.773  0.503-  53 1.41  67 1.44  65 1.44
  55  0.669  0.662  0.510-  44 1.41  56 1.41  71 2.01
  56  0.720  0.773  0.504-  55 1.41  67 1.44  69 1.44
  57  0.838  0.668  0.501-  44 1.41  58 1.41  46 1.42
  58  0.890  0.778  0.500-  57 1.41  69 1.42  59 1.42
  59  0.001  0.833  0.498-  48 1.42  60 1.42  58 1.42
  60  0.057  0.945  0.498-  59 1.42   3 1.42   1 1.43
  61  0.167  0.834  0.498-  50 1.42  48 1.42  62 1.43
  62  0.223  0.946  0.498-   3 1.42  61 1.43   5 1.43
  63  0.333  0.834  0.498-  50 1.42  64 1.42  52 1.43
  64  0.389  0.946  0.498-  63 1.42   7 1.42   5 1.43
  65  0.499  0.831  0.500-  66 1.42  52 1.42  54 1.44
  66  0.555  0.943  0.498-  65 1.42   9 1.42   7 1.43
  67  0.665  0.830  0.503-  68 1.42  54 1.44  56 1.44
  68  0.721  0.941  0.499-  67 1.42   9 1.44  11 1.44
  69  0.833  0.831  0.500-  58 1.42  70 1.43  56 1.44
  70  0.889  0.943  0.498-  11 1.42  69 1.43   1 1.43
  71  0.527  0.556  0.555-  30 1.99  53 1.99  32 2.00  55 2.01

IMPORTANT INFORMATION: All symmetrisations will be switched off!
NOSYMM: (Re-)initialisation of all symmetry stuff for point group C_1.

 KPOINTS: K-Points

Automatic generation of k-mesh.
Space group operators:
 irot       det(A)        alpha          n_x          n_y          n_z        tau_x        tau_y        tau_z
    1     1.000000     0.000000     1.000000     0.000000     0.000000     0.000000     0.000000     0.000000

 Subroutine IBZKPT returns following result:

 Found      4 irreducible k-points:

 Following reciprocal coordinates:
            Coordinates               Weight
  0.000000  0.000000  0.000000      1.000000
  0.500000 -0.000000  0.000000      1.000000
 -0.000000  0.500000  0.000000      1.000000
  0.500000  0.500000  0.000000      1.000000

 Following cartesian coordinates:
            Coordinates               Weight
  0.000000  0.000000  0.000000      1.000000
  0.033640  0.019603  0.000000      1.000000
 -0.000008  0.039207  0.000000      1.000000
  0.033631  0.058810  0.000000      1.000000

 SYSTEM =  unknown system
 POSCAR =  POSCAR-clean

 Startparameter for this run:
   NWRITE =      2    write-flag & timer
   PREC   = accura    normal or accurate (medium, high low for compatibility)
   ISTART =      0    job   : 0-new  1-cont  2-samecut
   ICHARG =      2    charge: 1-file 2-atom 10-const
   ISPIN  =      2    spin polarized calculation?
   LNONCOLLINEAR =      F non collinear calculations
   LSORBIT =      F    spin-orbit coupling
   INIWAV =      1    electr: 0-lowe 1-rand  2-diag
   LASPH  =      F    aspherical Exc in radial PAW
   METAGGA=      F    non-selfconsistent MetaGGA calc.

 Electronic Relaxation 1
   ENCUT  =  440.0 eV  32.34 Ry    5.69 a.u.  25.42 25.24 25.66*2*pi/ulx,y,z
   ENINI  =  440.0     initial cutoff
   ENAUG  =  644.9 eV  augmentation charge cutoff
   NELM   =     50;   NELMIN=  2; NELMDL= -5     # of ELM steps
   EDIFF  = 0.1E-04   stopping-criterion for ELM
   LREAL  =      T    real-space projection
   NLSPLINE    = F    spline interpolate recip. space projectors
   LCOMPAT=      F    compatible to vasp.4.4
   GGA_COMPAT  = T    GGA compatible to vasp.4.4-vasp.4.6
   LMAXPAW     = -100 max onsite density
   LMAXMIX     =    2 max onsite mixed and CHGCAR
   VOSKOWN=      0    Vosko Wilk Nusair interpolation
   ROPT   =   -0.00025  -0.00025  -0.00025  -0.00025
 Ionic relaxation
   EDIFFG = -.5E-01   stopping-criterion for IOM
   NSW    =    400    number of steps for IOM
   NBLOCK =      1;   KBLOCK =    400    inner block; outer block
   IBRION =      2    ionic relax: 0-MD 1-quasi-New 2-CG
   NFREE  =      1    steps in history (QN), initial steepest desc. (CG)
   ISIF   =      2    stress and relaxation
   IWAVPR =     11    prediction:  0-non 1-charg 2-wave 3-comb
   ISYM   =      0    0-nonsym 1-usesym 2-fastsym
   LCORR  =      T    Harris-Foulkes like correction to forces

   POTIM  = 0.3000    time-step for ionic-motion
   TEIN   =    0.0    initial temperature
   TEBEG  =    0.0;   TEEND  =   0.0 temperature during run
   SMASS  =  -3.00    Nose mass-parameter (am)
   estimated Nose-frequenzy (Omega)   =  0.10E-29 period in steps =****** mass=  -0.505E-26a.u.
   SCALEE = 1.0000    scale energy and forces
   NPACO  =    256;   APACO  = 16.0  distance and # of slots for P.C.
   PSTRESS=    0.0 pullay stress

  Mass of Ions in am
   POMASS =  12.01 14.00 12.01 52.00
  Ionic Valenz
   ZVAL   =   4.00  5.00  4.00 12.00
  Atomic Wigner-Seitz radii
  virtual crystal weights
   VCA    =   1.00  1.00  1.00  1.00
   NELECT =     293.0000    total number of electrons
   NUPDOWN=      -1.0000    fix difference up-down

 DOS related values:
   EMIN   =  10.00;   EMAX   =-10.00  energy-range for DOS
   EFERMI =   0.00
   ISMEAR =     0;   SIGMA  =   0.10  broadening in eV -4-tet -1-fermi 0-gaus

 Electronic relaxation 2 (details)
   IALGO  =     68    algorithm
   LDIAG  =      T    sub-space diagonalisation (order eigenvalues)
   LSUBROT=      F    optimize rotation matrix (better conditioning)
   TURBO    =      0    0=normal 1=particle mesh
   IRESTART =      0    0=no restart 2=restart with 2 vectors
   NREBOOT  =      0    no. of reboots
   NMIN     =      0    reboot dimension
[...]

 FORCES acting on ions
    electron-ion (+dipol)            ewald-force                    non-local-force                 convergence-correction
   0.189E+01 -.193E+01 0.811E+01   -.210E+01 0.204E+01 -.814E+01   0.222E+00 -.131E+00 0.306E-01   -.157E-03 0.366E-03 -.354E-04
   -.120E+01 -.466E+00 0.758E+01   0.125E+01 0.617E+00 -.760E+01   -.450E-01 -.135E+00 0.177E-01   0.690E-04 -.156E-03 0.402E-05
   0.365E+00 -.400E+01 0.736E+01   -.391E+00 0.439E+01 -.738E+01   0.184E-01 -.434E+00 0.219E-01   0.788E-05 0.363E-03 -.833E-04
   -.187E+01 0.374E+00 0.747E+01   0.192E+01 -.936E-01 -.748E+01   -.513E-01 -.303E+00 0.129E-01   -.908E-04 0.992E-04 -.589E-04
   0.471E-01 -.155E+01 0.681E+01   0.119E+00 0.181E+01 -.683E+01   -.161E+00 -.305E+00 0.198E-01   0.153E-03 0.338E-03 -.138E-03
   0.785E+00 0.463E+00 0.697E+01   -.798E+00 -.258E+00 -.697E+01   0.212E-01 -.221E+00 0.205E-02   0.766E-04 -.105E-03 -.138E-03
   -.280E+01 -.583E+00 0.761E+01   0.292E+01 0.608E+00 -.763E+01   -.128E+00 -.324E-01 0.206E-01   0.604E-04 0.131E-03 0.206E-04
   0.113E+01 0.488E-01 0.793E+01   -.124E+01 0.216E-01 -.795E+01   0.109E+00 -.543E-01 0.294E-01   -.124E-03 -.286E-03 -.216E-04
   -.196E+01 -.132E+01 0.753E+01   0.200E+01 0.123E+01 -.755E+01   -.453E-01 0.115E+00 0.193E-01   -.125E-03 -.504E-04 -.362E-04
   0.186E+00 0.280E+00 0.734E+01   -.201E+00 -.400E+00 -.737E+01   0.111E-01 0.153E+00 0.266E-01   -.217E-04 -.346E-03 -.877E-04
   0.287E+01 -.149E+01 0.700E+01   -.295E+01 0.146E+01 -.700E+01   0.946E-01 0.440E-01 0.214E-02   0.568E-04 0.114E-03 -.137E-03
   0.540E+00 -.192E+00 0.679E+01   -.491E+00 0.120E+00 -.681E+01   -.367E-01 0.111E+00 0.204E-01   0.991E-04 -.327E-03 -.157E-03
   0.125E+01 0.342E+01 0.712E+01   -.130E+01 -.348E+01 -.713E+01   0.360E-01 0.431E-01 0.762E-02   0.307E-03 -.497E-04 -.736E-04
   0.170E+01 0.437E+01 0.692E+01   -.158E+01 -.448E+01 -.695E+01   -.136E+00 0.102E+00 0.314E-01   0.289E-03 0.165E-03 0.247E-04
   0.293E+01 0.396E+01 0.799E+01   -.288E+01 -.377E+01 -.800E+01   -.558E-01 -.189E+00 0.123E-01   -.289E-04 -.132E-03 0.124E-04
   -.125E+01 0.750E+01 0.931E+01   0.173E+01 -.728E+01 -.941E+01   -.468E+00 -.236E+00 0.977E-01   -.150E-03 -.122E-03 -.911E-04
   -.325E+00 0.540E+01 0.730E+01   0.340E+00 -.500E+01 -.734E+01   -.127E-01 -.413E+00 0.354E-01   -.119E-03 -.105E-03 -.191E-03
   -.132E+01 0.864E+01 0.658E+01   0.133E+01 -.802E+01 -.624E+01   -.795E-02 -.612E+00 -.359E+00   -.265E-03 -.313E-03 -.481E-03
   -.173E+01 0.376E+01 0.824E+01   0.169E+01 -.361E+01 -.826E+01   0.502E-01 -.144E+00 0.198E-01   0.714E-04 -.403E-03 -.993E-04
   0.211E+01 0.827E+01 0.924E+01   -.266E+01 -.810E+01 -.933E+01   0.540E+00 -.180E+00 0.792E-01   0.257E-03 -.562E-04 -.169E-03
   -.161E+01 0.501E+01 0.773E+01   0.162E+01 -.516E+01 -.773E+01   0.809E-02 0.133E+00 0.448E-02   -.295E-03 -.108E-03 -.492E-04
   -.138E+01 0.514E+01 0.803E+01   0.124E+01 -.533E+01 -.806E+01   0.164E+00 0.183E+00 0.301E-01   -.264E-03 -.214E-04 -.321E-04
   -.457E-01 0.312E+01 0.611E+01   0.716E-01 -.330E+01 -.610E+01   -.280E-01 0.170E+00 -.171E-01   0.477E-04 -.175E-03 -.168E-03
   -.333E+00 0.425E+01 0.634E+01   0.419E+00 -.443E+01 -.637E+01   -.801E-01 0.190E+00 0.213E-01   0.768E-04 -.997E-04 -.182E-03
   0.553E+00 0.441E+01 0.576E+01   -.407E+00 -.466E+01 -.574E+01   -.164E+00 0.253E+00 -.247E-01   0.455E-03 0.126E-03 -.107E-03
   0.249E+01 0.734E+01 0.642E+01   -.188E+01 -.771E+01 -.645E+01   -.621E+00 0.368E+00 0.328E-01   0.259E-03 0.107E-03 0.269E-04
   0.397E+01 0.110E+02 0.648E+01   -.373E+01 -.111E+02 -.647E+01   -.241E+00 0.114E+00 -.182E-02   -.121E-03 -.120E-03 0.233E-03
   0.110E+02 0.683E+01 0.347E+01   -.107E+02 -.685E+01 -.354E+01   -.349E+00 0.270E-01 0.701E-01   -.287E-03 -.254E-03 0.422E-03
   0.523E+00 0.182E+02 0.137E+02   -.266E+00 -.174E+02 -.140E+02   -.268E+00 -.796E+00 0.260E+00   -.122E-03 -.450E-03 -.574E-03
   -.577E+01 0.383E+02 0.324E+02   0.117E+02 -.351E+02 -.317E+02   -.599E+01 -.325E+01 -.657E+00   -.521E-03 -.689E-03 -.741E-03
   0.991E-01 0.182E+02 0.111E+02   -.371E+00 -.173E+02 -.113E+02   0.280E+00 -.911E+00 0.223E+00   0.206E-04 -.306E-03 -.437E-03
   0.647E+01 0.353E+02 0.247E+02   -.125E+02 -.318E+02 -.238E+02   0.611E+01 -.346E+01 -.890E+00   0.449E-03 -.798E-03 -.750E-03
   -.295E+01 0.112E+02 0.758E+01   0.263E+01 -.115E+02 -.755E+01   0.317E+00 0.250E+00 -.217E-01   0.110E-04 -.240E-03 -.658E-05
   -.106E+02 0.989E+01 0.673E+01   0.977E+01 -.101E+02 -.685E+01   0.843E+00 0.242E+00 0.125E+00   0.123E-03 -.165E-03 -.328E-05
   -.169E+01 0.732E+01 0.691E+01   0.163E+01 -.786E+01 -.690E+01   0.695E-01 0.542E+00 -.149E-01   -.171E-03 0.131E-03 -.107E-03
   -.336E+01 0.124E+02 0.782E+01   0.330E+01 -.132E+02 -.786E+01   0.854E-01 0.862E+00 0.382E-01   -.596E-04 0.183E-03 -.214E-04
   -.679E+01 0.943E+01 0.690E+01   0.713E+01 -.108E+02 -.693E+01   -.329E+00 0.140E+01 0.237E-01   0.593E-04 0.175E-03 -.630E-04
   -.238E+02 0.133E+02 0.641E+01   0.292E+02 -.164E+02 -.640E+01   -.543E+01 0.308E+01 -.155E-01   0.440E-04 -.186E-03 -.250E-06
   0.195E+01 0.307E+01 0.383E+01   -.162E+01 -.323E+01 -.378E+01   -.325E+00 0.152E+00 -.452E-01   -.466E-04 0.495E-04 0.402E-03
   0.201E+01 -.130E+01 0.382E+01   -.138E+01 0.102E+01 -.375E+01   -.624E+00 0.288E+00 -.594E-01   -.101E-03 -.333E-04 0.415E-03
   0.267E+02 0.112E+02 0.122E+02   -.260E+02 -.117E+02 -.129E+02   -.702E+00 0.485E+00 0.770E+00   -.475E-03 -.244E-03 -.469E-04
   0.268E+02 -.109E+02 0.127E+02   -.261E+02 0.113E+02 -.134E+02   -.723E+00 -.448E+00 0.765E+00   -.468E-03 0.291E-03 -.709E-04
   -.209E+02 0.125E+02 0.122E+02   0.198E+02 -.130E+02 -.127E+02   0.109E+01 0.553E+00 0.579E+00   0.517E-03 -.216E-03 -.357E-03
   -.210E+02 -.105E+02 0.120E+02   0.196E+02 0.106E+02 -.125E+02   0.140E+01 -.110E+00 0.509E+00   0.532E-03 0.220E-03 -.330E-03
   0.155E+01 0.102E+02 0.620E+01   -.200E+01 -.116E+02 -.619E+01   0.444E+00 0.139E+01 -.808E-02   0.288E-03 0.162E-03 0.124E-03
   0.184E+02 0.127E+02 0.500E+01   -.240E+02 -.158E+02 -.482E+01   0.553E+01 0.310E+01 -.178E+00   0.296E-03 -.200E-03 0.171E-03
   -.409E+01 -.512E+01 0.859E+01   0.408E+01 0.543E+01 -.871E+01   0.310E-01 -.301E+00 0.129E+00   -.659E-04 -.281E-03 0.145E-03
   -.183E+01 -.299E+02 0.675E+01   0.175E+01 0.362E+02 -.678E+01   0.100E+00 -.630E+01 0.320E-01   -.240E-03 -.129E-03 0.114E-04
   -.733E+01 -.244E+01 0.590E+01   0.875E+01 0.290E+01 -.591E+01   -.143E+01 -.448E+00 0.140E-01   0.314E-03 -.132E-03 0.105E-03
   -.534E+01 -.731E+01 0.569E+01   0.610E+01 0.777E+01 -.567E+01   -.776E+00 -.467E+00 -.230E-01   0.454E-03 -.126E-03 -.169E-04
   0.101E+02 -.544E+01 0.387E+01   -.974E+01 0.539E+01 -.394E+01   -.411E+00 0.523E-01 0.737E-01   -.235E-03 0.254E-03 0.401E-03
   0.260E+01 -.113E+02 0.671E+01   -.222E+01 0.113E+02 -.670E+01   -.382E+00 -.556E-01 -.534E-02   -.807E-04 0.151E-03 0.230E-03
   -.609E+01 -.375E+02 0.327E+02   0.121E+02 0.341E+02 -.321E+02   -.602E+01 0.333E+01 -.635E+00   -.573E-03 0.726E-03 -.749E-03
   0.463E-01 -.192E+02 0.133E+02   0.217E+00 0.184E+02 -.136E+02   -.278E+00 0.827E+00 0.269E+00   -.139E-03 0.432E-03 -.541E-03
   0.795E+01 -.333E+02 0.242E+02   -.142E+02 0.297E+02 -.233E+02   0.627E+01 0.362E+01 -.848E+00   0.430E-03 0.830E-03 -.694E-03
   0.172E+01 -.186E+02 0.109E+02   -.213E+01 0.176E+02 -.111E+02   0.419E+00 0.978E+00 0.213E+00   0.219E-04 0.293E-03 -.381E-03
   -.681E+00 -.489E+01 0.608E+01   -.964E+00 0.519E+01 -.619E+01   0.164E+01 -.305E+00 0.111E+00   0.827E-04 0.184E-03 0.562E-04
   0.252E+01 -.143E+02 0.781E+01   -.347E+01 0.148E+02 -.777E+01   0.950E+00 -.458E+00 -.387E-01   0.132E-04 0.186E-03 0.492E-04
   0.285E+01 -.132E+02 0.820E+01   -.393E+01 0.142E+02 -.823E+01   0.109E+01 -.967E+00 0.406E-01   -.179E-03 -.454E-04 0.336E-04
   0.809E+00 -.692E+01 0.786E+01   -.816E+00 0.761E+01 -.787E+01   0.183E-01 -.675E+00 0.581E-02   -.240E-03 0.834E-04 -.397E-04
   -.393E+01 -.123E+02 0.641E+01   0.496E+01 0.133E+02 -.644E+01   -.102E+01 -.967E+00 0.248E-01   0.117E-03 0.813E-04 -.799E-04
   -.264E+01 -.511E+01 0.621E+01   0.266E+01 0.581E+01 -.619E+01   -.180E-01 -.705E+00 -.177E-01   0.289E-04 0.161E-03 -.127E-03
   -.185E+01 -.537E+01 0.698E+01   0.229E+01 0.567E+01 -.701E+01   -.457E+00 -.276E+00 0.319E-01   0.308E-03 -.207E-03 0.603E-04
   -.132E+00 -.524E+01 0.718E+01   0.198E+00 0.545E+01 -.718E+01   -.775E-01 -.200E+00 0.616E-02   0.333E-03 0.102E-03 -.533E-04
   -.230E+01 -.800E+01 0.930E+01   0.285E+01 0.781E+01 -.940E+01   -.542E+00 0.199E+00 0.935E-01   -.183E-03 0.763E-04 -.728E-04
   0.188E+01 -.533E+01 0.806E+01   -.180E+01 0.523E+01 -.808E+01   -.867E-01 0.108E+00 0.133E-01   -.731E-04 0.133E-03 0.333E-04
   -.227E+00 -.878E+01 0.605E+01   0.185E+00 0.818E+01 -.570E+01   0.458E-01 0.599E+00 -.363E+00   -.267E-03 0.288E-03 -.415E-03
   0.335E+00 -.694E+01 0.729E+01   -.364E+00 0.661E+01 -.733E+01   0.257E-01 0.356E+00 0.367E-01   -.626E-04 0.947E-04 -.151E-03
   0.590E+01 -.946E+01 0.957E+01   -.680E+01 0.944E+01 -.965E+01   0.892E+00 0.249E-01 0.775E-01   0.212E-03 0.335E-04 -.143E-03
   -.599E+00 -.545E+01 0.848E+01   0.452E+00 0.546E+01 -.850E+01   0.151E+00 -.122E-01 0.976E-02   0.224E-04 0.403E-03 -.103E-03
   -.489E+01 -.120E+01 -.638E+03   0.592E+01 0.110E+01 0.619E+03   -.109E+01 0.108E+00 0.194E+02   -.137E-02 -.234E-04 -.203E-02
   0.529E+00 -.352E-01 -.203E+02   0.506E-13 -.391E-12 -.227E-12   -.528E+00 0.327E-01 0.203E+02   -.757E-03 -.165E-03 -.866E-02

 POSITION                                       TOTAL-FORCE (eV/Angst)
     -7.42660     12.74330      7.46407         0.004817     -0.023731      0.002412
      0.00365      1.41684      7.46603        -0.004365      0.015372      0.002719
      2.48108      0.02140      7.46287        -0.006409     -0.038856     -0.001586
      2.48065      1.44532      7.47402        -0.007824     -0.021215      0.002015
      4.95090      0.02203      7.46511         0.005042     -0.035685     -0.003292
      4.95303      1.44554      7.47536         0.007388     -0.014557      0.001570
      0.00010     12.75162      7.46607        -0.004309     -0.006846      0.003669
      7.42994      1.42372      7.46466         0.001749      0.015180      0.002642
      2.48045     12.72448      7.47397        -0.004811      0.018550      0.003283
      9.91177      1.39650      7.46291        -0.003744      0.030841     -0.001670
      4.95690     12.72450      7.47521         0.008214      0.012930      0.001894
     12.38613      1.39566      7.46509         0.011476      0.037238     -0.003890
     13.61997      2.11423      7.46632        -0.011321     -0.020566     -0.001700
     -1.24650      3.53315      7.47636        -0.014965     -0.016316      0.003319
      1.24076      2.14322      7.47732        -0.001718     -0.004797     -0.000794
      1.23941      3.56853      7.50276         0.008336     -0.011843     -0.005754
      3.71715      2.16948      7.49043         0.002854     -0.013082     -0.001809
      3.71775      3.59024      7.53525         0.000522      0.010101     -0.015923
      6.19371      2.14810      7.47638         0.002522      0.004155     -0.002254
      6.19591      3.57640      7.50202        -0.011830     -0.010416     -0.003215
      8.67630      2.11611      7.46291         0.009144     -0.013659      0.000172
      8.67897      3.53510      7.47035         0.025566     -0.013531      0.004189
     11.14892      2.10743      7.46338        -0.002087     -0.004217     -0.004780
     11.14931      3.52945      7.46487         0.005762      0.007645     -0.007070
     12.37958      4.24545      7.47295        -0.017730      0.007012     -0.003834
     -2.48845      5.66942      7.47974        -0.011956     -0.011009     -0.000037
     -0.01337      4.24755      7.50241        -0.002796     -0.005810      0.006883
     -0.03585      5.66285      7.53270        -0.001006      0.000141      0.011291
      2.47788      4.30890      7.54643         0.001334     -0.012408     -0.008035
      2.44178      5.72532      7.63155        -0.010569     -0.019734     -0.017668
      4.95743      4.31855      7.55315        -0.004072     -0.002318      0.007067
      4.99395      5.73636      7.64476         0.014672     -0.002080      0.008895
      7.44962      4.25436      7.49587         0.005043      0.004602      0.004068
      7.47303      5.67365      7.52072         0.005718     -0.002392      0.001148
      9.91554      4.24272      7.46759         0.007481      0.004719     -0.001566
      9.92123      5.66196      7.47297         0.020959     -0.006278      0.000723
     11.13933      6.38652      7.47263         0.004030      0.007263     -0.003615
     -3.72521      7.80323      7.47422         0.005831     -0.011916     -0.002226
     -1.26590      6.37604      7.50649        -0.007102     -0.003853      0.012407
     -1.27363      7.79496      7.50646         0.003158      0.004476      0.013101
      1.18730      6.36982      7.58353         0.013833      0.007705      0.004084
      1.18325      7.80188      7.58203         0.009072     -0.009078      0.002833
      6.25304      6.37347      7.57972        -0.010212      0.009496      0.005952
      6.26189      7.80102      7.57968        -0.015607     -0.006534      0.006889
      8.70865      6.38722      7.49495        -0.003417     -0.008965      0.007336
      8.71263      7.80469      7.49714         0.003881      0.007006      0.007911
     -4.93976      8.50734      7.47576         0.012839      0.007491      0.003096
     -4.94617      9.91790      7.46891         0.020324     -0.001975      0.000465
     -2.49840      8.51255      7.48102        -0.017184      0.012895      0.001443
     -2.47887      9.93407      7.47349        -0.012188     -0.012181     -0.001745
     -0.04180      8.50832      7.53140        -0.004547      0.004487      0.011193
     -0.01440      9.92241      7.50172        -0.003648     -0.001320      0.005933
      2.43765      8.44678      7.63013        -0.006080      0.017879     -0.018707
      2.47705      9.86087      7.54746        -0.002435      0.011471     -0.008229
      5.00272      8.43838      7.64418         0.014062     -0.000116      0.010581
      4.95921      9.85361      7.55375        -0.005674      0.003575      0.007577
      7.48387      8.51300      7.52144         0.005098      0.001869      0.001471
      7.44598      9.92596      7.49546         0.007421     -0.004101      0.004908
     -6.17705     10.62505      7.47031         0.017032      0.014803      0.005370
     -6.17857     12.04916      7.46256         0.009287      0.018236     -0.000113
     -3.71651     10.63184      7.46530        -0.004166     -0.006219     -0.004531
     -3.71947     12.05872      7.46333         0.005667      0.006659     -0.004173
     -1.24809     10.63877      7.47620        -0.018655      0.020809      0.003524
     -1.24440     12.05945      7.46624        -0.010294      0.013344     -0.001346
      1.23745     10.60131      7.50278         0.010895      0.016481     -0.006412
      1.23878     12.02648      7.47721        -0.000225      0.004697     -0.000453
      3.71889     10.57981      7.53674         0.003732     -0.007525     -0.015860
      3.71856     11.99997      7.49072        -0.003114      0.015865     -0.001056
      6.19790     10.59870      7.50113        -0.009202      0.010215     -0.003628
      6.19660     12.02618      7.47561         0.001839     -0.001185     -0.002607
      3.69287      7.08647      8.32566        -0.041336      0.001108     -0.024450
    total drift:                               -0.000017     -0.002686     -0.000811

  FREE ENERGIE OF THE ION-ELECTRON SYSTEM (eV)
  free  energy   TOTEN  =      -653.06502791 eV

  energy  without entropy=     -653.01657721  energy(sigma->0) =     -653.04080256

 d Force = 0.4641836E-03[ 0.601E-04, 0.868E-03]  d Energy = 0.4653202E-03-0.114E-05
 d Force =-0.8550297E+00[-0.855E+00,-0.855E+00]  d Ewald  =-0.8550297E+00 0.614E-07

 stress matrix after NEB project (eV)
     -5.88217     -0.10985     -0.03461
     -0.10985     -3.23726      0.00173
     -0.03461      0.00173     -3.52150
  FORCES: max atom, RMS     0.048039    0.018815
  FORCE total and by dimension    0.158536    0.041336
  Stress total and by dimension    7.583356    5.882168
 Conjugate gradient step on ions:
 trial-energy change:   -0.000465  1 .order   -0.000464   -0.000868   -0.000060
  (g-gl).g = 0.899E-03      g.g   = 0.905E-03  gl.gl    = 0.120E-02
 g(Force)  = 0.905E-03   g(Stress)= 0.000E+00 ortho     = 0.322E-05
 gamma     =   0.75223
 trial     =   0.95730
 opt step  =   1.02846  (harmonic =   1.02846) maximal distance =0.00142833
 next E    =  -653.065029   (d E  =  -0.00047)

 reached required accuracy - stopping structural energy minimisation