 vasp.5.4.4.18Apr17-6-g9f103f2a35 (build Nov  8 2022 18:58:45) complex
 executed on             LinuxGNU date 2023.04.13  17:57:48

 INCAR:
 POTCAR:    PAW_PBE C 08Apr2002
 POTCAR:    PAW_PBE N 08Apr2002
 POTCAR:    PAW_PBE Ge_d 03Jul2007
 POTCAR:    PAW_PBE C 08Apr2002
 POTCAR:    PAW_PBE O 08Apr2002
 POTCAR:    PAW_PBE C 08Apr2002
   VRHFIN =C: s2p2

   TITEL  = PAW_PBE C 08Apr2002
   POMASS =   12.011; ZVAL   =    4.000    mass and valenz
   ENMAX  =  400.000; ENMIN  =  300.000 eV

[...]

   TITEL  = PAW_PBE Ge_d 03Jul2007
   POMASS =   72.610; ZVAL   =   14.000    mass and valenz
   ENMAX  =  310.294; ENMIN  =  232.720 eV

[...]

   TITEL  = PAW_PBE O 08Apr2002
   POMASS =   16.000; ZVAL   =    6.000    mass and valenz
   ENMAX  =  400.000; ENMIN  =  300.000 eV

  PAW_PBE C 08Apr2002                   :
  PAW_PBE N 08Apr2002                   :
  PAW_PBE Ge_d 03Jul2007                :
  PAW_PBE C 08Apr2002                   :
  PAW_PBE O 08Apr2002                   :

 POSCAR: POSCAR-c3n4
  positions in direct lattice
  velocities in cartesian coordinates
 exchange correlation table for  LEXCH =        8
   RHO(1)=    0.500       N(1)  =     2000
   RHO(2)=  100.500       N(2)  =     4000

 ion  position               nearest neighbor table
   1  0.989  0.151  0.508-  26 1.32  46 1.36  25 1.39
   2  0.371  0.363  0.367-  35 1.30  29 1.31
   3  0.016  0.325  0.513-  25 1.21  44 1.24
   4  0.529  0.101  0.545-  30 1.32  27 1.35  48 1.41
   5  0.509  0.374  0.410-  28 1.34  29 1.35  56 1.41
   6  0.016  0.021  0.491-  31 1.31  26 1.36  32 1.43
   7  0.060  0.746  0.473-  33 1.34  34 1.37  54 1.37
   8  0.403  0.949  0.583-  27 1.30  37 1.32
   9  0.033  0.881  0.492-  33 1.33  52 1.37  31 1.39
  10  0.468  0.504  0.437-  38 1.32  35 1.36  56 1.41
  11  0.540  0.948  0.551-  36 1.33  37 1.35  48 1.41
  12  0.109  0.628  0.491-  39 1.32  34 1.32  40 1.45
  13  0.662  0.243  0.494-  42 1.34  30 1.35  41 1.41
  14  0.810  0.416  0.479-  51 1.32  45 1.36  41 1.41
  15  0.642  0.389  0.474-  55 1.32  28 1.34  41 1.46
  16  0.851  0.994  0.512-  46 1.31  32 1.38  43 1.40
  17  0.965  0.445  0.501-  45 1.32  44 1.36  40 1.40
  18  0.670  0.100  0.488-  42 1.34  47 1.34  48 1.41
  19  0.585  0.648  0.499-  50 1.36  49 1.37  38 1.37
  20  0.715  0.815  0.520-  53 1.32  49 1.32  43 1.50
  21  0.684  0.963  0.511-  36 1.34  47 1.34  43 1.43
  22  0.938  0.578  0.461-  54 1.31  51 1.36  40 1.44
  23  0.878  0.852  0.522-  52 1.31  53 1.32  32 1.43
  24  0.611  0.515  0.499-  50 1.32  55 1.36  56 1.41
  25  0.027  0.254  0.514-   3 1.21   1 1.39
  26  0.053  0.123  0.492-   1 1.32   6 1.36
  27  0.437  0.046  0.576-   8 1.30   4 1.35
  28  0.571  0.340  0.421-   5 1.34  15 1.34
  29  0.428  0.325  0.365-   2 1.31   5 1.35
  30  0.574  0.199  0.532-   4 1.32  13 1.35
  31  0.073  0.984  0.481-   6 1.31   9 1.39
  32  0.912  0.955  0.503-  16 1.38   6 1.43  23 1.43
  33  0.091  0.844  0.477-   9 1.33   7 1.34
  34  0.132  0.723  0.487-  12 1.32   7 1.37
  35  0.380  0.445  0.398-   2 1.30  10 1.36
  36  0.598  0.910  0.549-  11 1.33  21 1.34
  37  0.444  0.895  0.575-   8 1.32  11 1.35
  38  0.495  0.595  0.462-  10 1.32  19 1.37
  39  0.178  0.605  0.499-  12 1.32  57 1.74
  40  0.006  0.548  0.486-  17 1.40  22 1.44  12 1.45
  41  0.706  0.348  0.484-  14 1.41  13 1.41  15 1.46
  42  0.708  0.197  0.467-  18 1.34  13 1.34
  43  0.749  0.925  0.513-  16 1.40  21 1.43  20 1.50
  44  0.028  0.411  0.512-   3 1.24  17 1.36
  45  0.869  0.382  0.506-  17 1.32  14 1.36
  46  0.889  0.092  0.520-  16 1.31   1 1.36
  47  0.716  0.050  0.472-  21 1.34  18 1.34
  48  0.579  0.050  0.529-  11 1.41  18 1.41   4 1.41
  49  0.621  0.750  0.504-  20 1.32  19 1.37
  50  0.634  0.604  0.527-  24 1.32  19 1.36
  51  0.841  0.506  0.450-  14 1.32  22 1.36
  52  0.940  0.820  0.524-  23 1.31   9 1.37
  53  0.782  0.791  0.536-  20 1.32  23 1.32
  54  0.966  0.674  0.451-  22 1.31   7 1.37
  55  0.662  0.469  0.517-  15 1.32  24 1.36
  56  0.530  0.464  0.447-   5 1.41  24 1.41  10 1.41
  57  0.304  0.647  0.510-  39 1.74
  58  0.281  0.619  0.670-  59 1.14
  59  0.253  0.567  0.724-  58 1.14

IMPORTANT INFORMATION: All symmetrisations will be switched off!
NOSYMM: (Re-)initialisation of all symmetry stuff for point group C_1.

 KPOINTS: K-Points

Automatic generation of k-mesh.
Space group operators:
 irot       det(A)        alpha          n_x          n_y          n_z        tau_x        tau_y        tau_z
    1     1.000000     0.000000     1.000000     0.000000     0.000000     0.000000     0.000000     0.000000

 Subroutine IBZKPT returns following result:

 Found      5 irreducible k-points:

 Following reciprocal coordinates:
            Coordinates               Weight
  0.000000  0.000000  0.000000      1.000000
  0.333333  0.000000  0.000000      2.000000
  0.000000  0.333333  0.000000      2.000000
  0.333333  0.333333  0.000000      2.000000
 -0.333333  0.333333  0.000000      2.000000

 Following cartesian coordinates:
            Coordinates               Weight
  0.000000  0.000000  0.000000      1.000000
  0.024277  0.014368  0.000000      2.000000
  0.000396  0.028736  0.000000      2.000000
  0.024673  0.043104  0.000000      2.000000
 -0.023881  0.014368  0.000000      2.000000

 SYSTEM =  unknown system
 POSCAR =  POSCAR-c3n4

 Startparameter for this run:
   NWRITE =      2    write-flag & timer
   PREC   = normal    normal or accurate (medium, high low for compatibility)
   ISTART =      0    job   : 0-new  1-cont  2-samecut
   ICHARG =      2    charge: 1-file 2-atom 10-const
   ISPIN  =      2    spin polarized calculation?
   LNONCOLLINEAR =      F non collinear calculations
   LSORBIT =      F    spin-orbit coupling
   INIWAV =      1    electr: 0-lowe 1-rand  2-diag
   LASPH  =      F    aspherical Exc in radial PAW
   METAGGA=      F    non-selfconsistent MetaGGA calc.

 Electronic Relaxation 1
   ENCUT  =  440.0 eV  32.34 Ry    5.69 a.u.  26.99 26.50 29.25*2*pi/ulx,y,z
   ENINI  =  440.0     initial cutoff
   ENAUG  =  644.9 eV  augmentation charge cutoff
   NELM   =    200;   NELMIN=  2; NELMDL= -5     # of ELM steps
   EDIFF  = 0.1E-03   stopping-criterion for ELM
   LREAL  =      F    real-space projection
   NLSPLINE    = F    spline interpolate recip. space projectors
   LCOMPAT=      F    compatible to vasp.4.4
   GGA_COMPAT  = T    GGA compatible to vasp.4.4-vasp.4.6
   LMAXPAW     = -100 max onsite density
   LMAXMIX     =    2 max onsite mixed and CHGCAR
   VOSKOWN=      0    Vosko Wilk Nusair interpolation
   ROPT   =    0.00000   0.00000   0.00000   0.00000
   ROPT   =    0.00000
 Ionic relaxation
   EDIFFG = -.1E-01   stopping-criterion for IOM
   NSW    =      0    number of steps for IOM
   NBLOCK =      1;   KBLOCK =      1    inner block; outer block
   IBRION =     -1    ionic relax: 0-MD 1-quasi-New 2-CG
   NFREE  =      0    steps in history (QN), initial steepest desc. (CG)
   ISIF   =      2    stress and relaxation
   IWAVPR =     10    prediction:  0-non 1-charg 2-wave 3-comb
   ISYM   =      0    0-nonsym 1-usesym 2-fastsym
   LCORR  =      T    Harris-Foulkes like correction to forces

   POTIM  = 0.5000    time-step for ionic-motion
   TEIN   =    0.0    initial temperature
   TEBEG  =    0.0;   TEEND  =   0.0 temperature during run
   SMASS  =  -3.00    Nose mass-parameter (am)
   estimated Nose-frequenzy (Omega)   =  0.10E-29 period in steps =****** mass=  -0.569E-26a.u.
   SCALEE = 1.0000    scale energy and forces
   NPACO  =    256;   APACO  = 16.0  distance and # of slots for P.C.
   PSTRESS=    0.0 pullay stress

  Mass of Ions in am
   POMASS =  12.01 14.00 72.61 12.01 16.00
  Ionic Valenz
   ZVAL   =   4.00  5.00 14.00  4.00  6.00
  Atomic Wigner-Seitz radii
  virtual crystal weights
   VCA    =   1.00  1.00  1.00  1.00  1.00
   NELECT =     280.0000    total number of electrons
   NUPDOWN=      -1.0000    fix difference up-down

 DOS related values:
   EMIN   = -14.00;   EMAX   =  6.00  energy-range for DOS
   EFERMI =   0.00
   ISMEAR =     0;   SIGMA  =   0.03  broadening in eV -4-tet -1-fermi 0-gaus

 Electronic relaxation 2 (details)
   IALGO  =     38    algorithm
   LDIAG  =      T    sub-space diagonalisation (order eigenvalues)
   LSUBROT=      F    optimize rotation matrix (better conditioning)
   TURBO    =      0    0=normal 1=particle mesh
   IRESTART =      0    0=no restart 2=restart with 2 vectors
   NREBOOT  =      0    no. of reboots
   NMIN     =      0    reboot dimension
   EREF     =   0.00    reference energy to select bands
   IMIX   =      4    mixing-type and parameters
     AMIX     =   0.25;   BMIX     =  0.00
     AMIX_MAG =   1.00;   BMIX_MAG =  0.00
     AMIN     =   0.10
     WC   =   100.;   INIMIX=   1;  MIXPRE=   1;  MAXMIX= -45

 Intra band minimization:
   WEIMIN = 0.0000     energy-eigenvalue tresh-hold
   EBREAK =  0.15E-06  absolut break condition
   DEPER  =   0.30     relativ break condition

   TIME   =   0.40     timestep for ELM

  volume/ion in A,a.u.               =      60.49       408.17
  Fermi-wavevector in a.u.,A,eV,Ry     =   0.700854  1.324421  6.683124  0.491196
  Thomas-Fermi vector in A             =   1.785121

 Write flags
   LWAVE        =      F    write WAVECAR
   LDOWNSAMPLE  =      F    k-point downsampling of WAVECAR
   LCHARG       =      F    write CHGCAR
   LVTOT        =      F    write LOCPOT, total local potential
   LVHAR        =      F    write LOCPOT, Hartree potential only
   LELF         =      F    write electronic localiz. function (ELF)
   LORBIT       =     11    0 simple, 1 ext, 2 COOP (PROOUT), +10 PAW based schemes

 Dipole corrections
   LMONO  =      F    monopole corrections only (constant potential shift)
   LDIPOL =      F    correct potential (dipole corrections)
   IDIPOL =      0    1-x, 2-y, 3-z, 4-all directions
   EPSILON=  1.0000000 bulk dielectric constant

 Exchange correlation treatment:
   GGA     =    --    GGA type
   VOSKOWN=      0    Vosko Wilk Nusair interpolation
   LHFCALC =     F    Hartree Fock is set to
   LHFONE  =     F    Hartree Fock one center treatment
   AEXX    =    0.0000 exact exchange contribution

 Linear response parameters
   LEPSILON=     F    determine dielectric tensor
   LRPA    =     F    only Hartree local field effects (RPA)
   LNABLA  =     F    use nabla operator in PAW spheres
   LVEL    =     F    velocity operator in full k-point grid
   LINTERFAST=   F  fast interpolation
   KINTER  =     0    interpolate to denser k-point grid
   CSHIFT  =0.1000    complex shift for real part using Kramers Kronig
   OMEGAMAX=  -1.0    maximum frequency
   DEG_THRESHOLD= 0.2000000E-02 threshold for treating states as degnerate
   RTIME   =   -0.100 relaxation time in fs
  (WPLASMAI=    0.000 imaginary part of plasma frequency in eV, 0.658/RTIME)
   DFIELD  = 0.0000000 0.0000000 0.0000000 field for delta impulse in time

 Orbital magnetization related:
   ORBITALMAG=     F  switch on orbital magnetization
   LCHIMAG   =     F  perturbation theory with respect to B field
   DQ        =  0.001000  dq finite difference perturbation B field
   LLRAUG    =     F  two centre corrections for induced B field

 Static calculation
[...]
  Fock        0.00000     0.00000     0.00000     0.00000     0.00000     0.00000
  vdW        -1.71666    -1.83906    -0.23462     0.04205    -0.04769    -0.03597
  Total     -14.89597   -21.35976    -7.17869     7.19545    -0.29102     0.14221
  in kB      -6.68773    -9.58973    -3.22296     3.23049    -0.13066     0.06385

 VOLUME and BASIS-vectors are now :
  energy-cutoff  :      440.00
  volume of cell :     3568.62
      direct lattice vectors                 reciprocal lattice vectors
    15.781503627 -0.217444140  0.000000000     0.063886289  0.037810627 -0.000000000
    -7.890751814 13.332517733  0.000000000     0.001041941  0.075621253 -0.000000000
     0.000000000  0.000000000 17.100000000    -0.000000000 -0.000000000  0.058479532

  length of vectors
    15.783001574 15.492578652 17.100000000     0.074236793  0.075628431  0.058479532

 FORCES acting on ions
    electron-ion (+dipol)            ewald-force                    non-local-force                 convergence-correction
   -.593E+02 -.112E+03 -.207E+02   0.606E+02 0.107E+03 0.203E+02   -.136E+01 0.505E+01 0.409E+00   -.255E-03 -.164E-03 0.185E-03
   0.198E+03 0.169E+03 0.285E+03   -.203E+03 -.173E+03 -.289E+03   0.547E+01 0.452E+01 0.361E+01   0.167E-02 0.127E-02 0.136E-02
   -.502E+02 0.121E+02 -.311E+02   0.442E+02 -.142E+02 0.304E+02   0.595E+01 0.209E+01 0.682E+00   -.384E-03 -.236E-04 0.257E-03
   0.135E+03 -.771E+01 -.102E+03   -.138E+03 0.927E+01 0.103E+03   0.294E+01 -.154E+01 -.756E+00   -.217E-03 -.150E-02 0.301E-03
   0.366E+02 0.108E+03 0.176E+03   -.353E+02 -.110E+03 -.177E+03   -.948E+00 0.273E+01 0.114E+01   0.504E-03 0.474E-03 0.943E-03
   -.109E+03 -.975E+02 0.423E+02   0.113E+03 0.984E+02 -.420E+02   -.320E+01 -.950E+00 -.240E+00   -.262E-03 -.375E-03 0.247E-03
   -.359E+02 -.913E+02 0.620E+02   0.348E+02 0.910E+02 -.602E+02   0.117E+01 0.204E+00 -.181E+01   0.162E-03 0.143E-03 0.224E-03
   0.239E+03 0.988E+02 -.194E+03   -.247E+03 -.104E+03 0.196E+03   0.801E+01 0.530E+01 -.207E+01   -.128E-02 -.938E-03 0.985E-03
   -.920E+02 -.636E+02 0.168E+02   0.914E+02 0.627E+02 -.184E+02   0.685E+00 0.914E+00 0.157E+01   0.609E-04 0.273E-04 0.251E-03
   0.118E+03 0.194E+02 0.102E+03   -.121E+03 -.175E+02 -.101E+03   0.276E+01 -.148E+01 -.358E+00   0.790E-03 0.484E-03 0.583E-03
   0.446E+02 0.753E+02 -.101E+03   -.445E+02 -.787E+02 0.101E+03   -.238E-01 0.339E+01 -.407E+00   -.133E-02 0.305E-03 0.380E-03
   -.429E+02 -.258E+02 0.233E+02   0.440E+02 0.290E+02 -.238E+02   -.107E+01 -.309E+01 0.522E+00   -.571E-03 -.747E-05 0.146E-03
   0.201E+02 0.218E+01 0.131E+02   -.197E+02 -.516E+01 -.126E+02   -.409E+00 0.283E+01 -.507E+00   0.246E-03 -.595E-03 0.531E-03
   -.498E+01 0.224E+02 0.301E+02   0.700E+01 -.201E+02 -.301E+02   -.193E+01 -.227E+01 0.351E-01   0.173E-03 -.279E-03 0.157E-03
   0.804E+01 0.332E+02 0.913E+01   -.112E+02 -.316E+02 -.948E+01   0.333E+01 -.154E+01 0.411E+00   0.349E-03 -.112E-03 0.538E-03
   -.725E+00 -.321E+02 -.194E+02   0.267E+00 0.350E+02 0.194E+02   0.486E+00 -.285E+01 0.607E-02   -.129E-03 -.228E-03 0.420E-04
   -.785E+02 0.302E+02 -.314E+02   0.755E+02 -.317E+02 0.306E+02   0.299E+01 0.158E+01 0.817E+00   0.357E-04 0.275E-03 0.907E-04
   -.210E+02 -.151E+02 0.986E+02   0.231E+02 0.166E+02 -.100E+03   -.211E+01 -.155E+01 0.139E+01   -.701E-03 -.502E-03 0.630E-03
   0.564E+02 -.126E+02 -.324E+02   -.551E+02 0.128E+02 0.315E+02   -.125E+01 -.487E-01 0.102E+01   0.381E-04 0.261E-03 0.295E-03
   0.312E+02 0.980E+01 -.529E+02   -.302E+02 -.133E+02 0.532E+02   -.802E+00 0.364E+01 -.266E+00   -.459E-03 0.493E-03 0.985E-04
   -.913E+01 0.292E+02 0.162E+02   0.607E+01 -.275E+02 -.157E+02   0.292E+01 -.160E+01 -.382E+00   -.481E-03 0.129E-03 0.293E-03
   0.183E+02 -.288E+02 0.104E+03   -.203E+02 0.305E+02 -.104E+03   0.193E+01 -.178E+01 0.859E+00   0.483E-03 -.114E-03 0.249E-03
   -.468E+02 0.331E+02 -.772E+02   0.484E+02 -.357E+02 0.782E+02   -.156E+01 0.271E+01 -.108E+01   -.453E-04 0.448E-03 0.247E-04
   -.894E+01 0.541E+00 -.907E+02   0.104E+02 0.105E+01 0.931E+02   -.140E+01 -.156E+01 -.226E+01   0.962E-04 -.149E-05 0.210E-03
   -.171E+03 -.727E+02 -.491E+02   0.190E+03 0.701E+02 0.502E+02   -.187E+02 0.255E+01 -.116E+01   -.614E-03 -.140E-03 0.331E-03
   -.259E+03 -.207E+03 0.665E+02   0.288E+03 0.230E+03 -.731E+02   -.283E+02 -.225E+02 0.666E+01   -.249E-03 -.678E-03 0.371E-03
   0.334E+03 -.625E+02 -.227E+03   -.363E+03 0.781E+02 0.236E+03   0.293E+02 -.156E+02 -.873E+01   -.315E-03 -.308E-02 0.159E-03
   0.470E+00 0.222E+03 0.306E+03   0.122E+02 -.250E+03 -.324E+03   -.128E+02 0.286E+02 0.179E+02   0.915E-03 -.277E-03 0.822E-03
   0.492E+02 0.282E+03 0.374E+03   -.402E+02 -.310E+03 -.392E+03   -.975E+01 0.275E+02 0.175E+02   0.120E-02 0.233E-03 0.120E-02
   0.251E+03 -.549E+02 -.180E+03   -.280E+03 0.747E+02 0.189E+03   0.284E+02 -.197E+02 -.990E+01   0.309E-03 -.161E-02 0.733E-03
   -.270E+03 -.188E+03 0.107E+03   0.300E+03 0.205E+03 -.115E+03   -.299E+02 -.178E+02 0.849E+01   0.835E-05 -.391E-03 0.377E-03
   -.647E+02 -.292E+02 0.378E+02   0.677E+02 0.264E+02 -.422E+02   -.304E+01 0.278E+01 0.440E+01   -.647E-04 0.203E-04 0.892E-04
   -.191E+03 -.199E+03 0.862E+02   0.214E+03 0.219E+03 -.901E+02   -.233E+02 -.197E+02 0.390E+01   0.352E-03 0.354E-04 0.456E-03
   -.143E+03 -.233E+03 0.144E+02   0.164E+03 0.260E+03 -.102E+02   -.212E+02 -.269E+02 -.421E+01   0.681E-04 0.474E-03 0.361E-03
   0.308E+03 0.259E+02 0.223E+03   -.340E+03 -.157E+02 -.224E+03   0.314E+02 -.108E+02 0.858E+00   0.615E-03 0.134E-02 0.842E-03
   0.954E+01 0.197E+03 -.213E+03   -.206E+01 -.229E+03 0.229E+03   -.738E+01 0.318E+02 -.157E+02   -.144E-02 0.605E-03 0.241E-03
   0.997E+02 0.213E+03 -.205E+03   -.982E+02 -.246E+03 0.211E+03   -.139E+01 0.328E+02 -.569E+01   -.260E-02 0.858E-03 0.118E-02
   0.245E+03 -.685E+02 0.104E+03   -.275E+03 0.851E+02 -.109E+03   0.302E+02 -.169E+02 0.429E+01   0.892E-04 0.869E-03 0.604E-03
   -.787E+01 0.895E+02 0.460E+02   0.215E+02 -.100E+03 -.452E+02   -.136E+02 0.106E+02 -.837E+00   -.318E-03 0.571E-03 0.335E-03
   -.650E+02 -.131E+02 0.223E+02   0.663E+02 0.162E+02 -.223E+02   -.138E+01 -.318E+01 0.243E-01   -.126E-03 0.585E-04 0.143E-03
   0.102E+02 0.155E+02 0.105E+02   -.117E+02 -.147E+02 -.990E+01   0.152E+01 -.708E+00 -.666E+00   0.422E-03 -.845E-03 0.459E-03
   -.135E+03 -.493E+02 0.250E+03   0.159E+03 0.668E+02 -.270E+03   -.248E+02 -.175E+02 0.203E+02   -.372E-03 -.508E-03 0.641E-03
   0.270E+02 0.186E+02 -.106E+02   -.296E+02 -.243E+02 0.989E+01   0.260E+01 0.562E+01 0.698E+00   -.624E-03 0.333E-03 0.195E-03
   -.168E+03 -.217E+02 -.582E+02   0.182E+03 0.444E+02 0.600E+02   -.135E+02 -.227E+02 -.174E+01   -.424E-03 -.149E-04 0.274E-03
   -.639E+02 0.169E+03 -.122E+03   0.664E+02 -.202E+03 0.134E+03   -.251E+01 0.335E+02 -.116E+02   -.718E-04 -.150E-03 0.412E-04
   0.906E+02 -.161E+03 -.112E+03   -.122E+03 0.178E+03 0.119E+03   0.314E+02 -.170E+02 -.748E+01   -.419E-03 -.304E-03 0.552E-04
   -.977E+02 -.745E+02 0.286E+03   0.123E+03 0.885E+02 -.308E+03   -.255E+02 -.140E+02 0.219E+02   -.704E-03 -.233E-03 0.513E-03
   0.602E+02 0.156E+02 -.517E+02   -.603E+02 -.153E+02 0.520E+02   0.702E-01 -.402E+00 -.264E+00   -.130E-02 -.945E-03 0.761E-03
   0.186E+03 -.225E+01 0.272E+02   -.217E+03 0.106E+02 -.349E+02   0.315E+02 -.850E+01 0.767E+01   -.233E-03 0.703E-03 0.399E-03
   -.829E+02 -.460E+02 -.269E+03   0.103E+03 0.645E+02 0.292E+03   -.207E+02 -.186E+02 -.232E+02   0.280E-03 0.717E-04 0.282E-03
   0.130E+03 -.912E+02 0.247E+03   -.160E+03 0.102E+03 -.263E+03   0.306E+02 -.104E+02 0.160E+02   0.597E-03 0.377E-04 0.220E-03
   -.925E+02 0.141E+03 -.180E+03   0.102E+03 -.174E+03 0.191E+03   -.986E+01 0.327E+02 -.108E+02   0.354E-03 0.371E-03 0.382E-04
   -.743E+02 0.165E+03 -.202E+03   0.808E+02 -.198E+03 0.213E+03   -.665E+01 0.331E+02 -.104E+02   0.165E-03 0.559E-03 0.151E-03
   0.148E+03 -.978E+02 0.229E+03   -.180E+03 0.110E+03 -.241E+03   0.317E+02 -.119E+02 0.120E+02   0.463E-03 -.167E-04 0.251E-03
   -.620E+02 -.736E+02 -.288E+03   0.834E+02 0.878E+02 0.313E+03   -.215E+02 -.142E+02 -.257E+02   0.197E-03 0.582E-04 0.403E-03
   0.573E+02 0.378E+02 0.910E+02   -.568E+02 -.371E+02 -.914E+02   -.724E+00 -.777E+00 0.270E+00   0.703E-03 0.586E-03 0.990E-03
   -.329E+03 -.392E+02 0.636E+02   0.347E+03 0.450E+02 -.652E+02   -.183E+02 -.577E+01 0.162E+01   -.115E-02 0.316E-02 0.176E-02
   -.186E+02 -.104E+03 -.111E+03   0.193E+02 0.120E+03 0.903E+02   -.654E+00 -.160E+02 0.210E+02   -.111E-03 0.512E-03 -.200E-04
   -.134E+02 0.159E+03 -.518E+03   0.119E+02 -.195E+03 0.567E+03   0.142E+01 0.362E+02 -.490E+02   -.116E-03 0.419E-03 -.151E-03
   0.428E+02 0.192E+02 0.195E+02   -.387E-12 -.341E-12 -.341E-12   -.428E+02 -.192E+02 -.195E+02   -.602E-02 0.216E-02 0.245E-01

 POSITION                                       TOTAL-FORCE (eV/Angst)
     14.42000      1.79590      8.69042        -0.027783      0.017241      0.013225
      2.98322      4.76160      6.27135         0.390673      0.262491      0.304777
     -2.31464      4.33074      8.77249        -0.036184      0.000231     -0.010397
      7.55449      1.23096      9.32786         0.033566      0.027968     -0.059140
      5.08767      4.86966      7.01428         0.364236      0.001091      0.214507
      0.09031      0.27662      8.39994         0.016091      0.014547      0.010481
     -4.93679      9.93291      8.08472         0.056544      0.003975      0.045391
     -1.12835     12.57003      9.97683        -0.469879     -0.252070      0.127167
     -6.43541     11.73851      8.41933         0.030598     -0.008358      0.000129
      3.40514      6.61355      7.46446         0.122978      0.426868      0.174984
      1.03946     12.52471      9.42299         0.057103     -0.008763      0.015937
     -3.23097      8.35498      8.39053         0.010484      0.069879      0.016184
      8.52216      3.09636      8.45400        -0.071394     -0.105938     -0.046322
      9.50110      5.36743      8.19779         0.045143      0.018764     -0.005950
      7.05886      5.05279      8.11188         0.173233     -0.044692      0.072261
      5.59526     13.06381      8.75629         0.003202     -0.032433     -0.010528
     11.71883      5.72521      8.57447         0.015376      0.033808     -0.012550
      9.78218      1.19387      8.33875         0.011645      0.017473      0.007622
      4.12236      8.51772      8.52519         0.019150      0.214810      0.063746
      4.85176     10.70992      8.88631         0.087919      0.136203      0.028450
      3.18964     12.69403      8.73327        -0.086127      0.003890      0.063671
     10.23070      7.50888      7.88698         0.000929     -0.008943      0.017139
      7.13188     11.17030      8.93327         0.091634      0.056202     -0.037177
      5.57572      6.72724      8.53163         0.124736      0.051381      0.141521
     -1.57327      3.37974      8.78303         0.030674     -0.029788     -0.035078
     -0.13329      1.62296      8.40606         0.018691      0.023493      0.012079
      6.53599      0.51357      9.85079         0.258574     -0.085560      0.068349
      6.32585      4.40568      7.20022        -0.203581      0.037871     -0.073108
      4.18486      4.23590      6.24453        -0.692022      0.138387     -0.168761
      7.48052      2.53186      9.09136         0.049555      0.098768     -0.090979
     -6.61133     13.09829      8.22329         0.018539      0.033344      0.024468
      6.85920     12.53355      8.60668        -0.029643      0.012652     -0.005034
     -5.23156     11.23916      8.15746        -0.026493      0.023451     -0.003617
     -3.62969      9.61457      8.33140        -0.025002     -0.022142     -0.003071
      2.49459      5.84415      6.80811         0.022426     -0.625477     -0.370728
      2.25947     11.99592      9.39123         0.104252      0.014392     -0.048079
     -0.04860     11.82949      9.82724         0.067609      0.205643     -0.061231
      3.12094      7.82593      7.89940         0.036328     -0.234568     -0.098256
     -1.95764      8.02755      8.53036        -0.023320      0.005008     -0.008251
     -4.23527      7.30547      8.31052        -0.056192     -0.031484      0.006762
      8.39943      4.49217      8.27426        -0.013920      0.085316     -0.020494
      9.61547      2.47356      7.98596         0.007228      0.000005      0.019357
      4.52160     12.16650      8.77340         0.051484     -0.038316     -0.000895
     -2.79623      5.47076      8.75164        -0.033710      0.023228     -0.005376
     10.69525      4.90111      8.64693        -0.016477     -0.022369      0.008182
     13.31485      1.02783      8.89308        -0.030116     -0.037384     -0.011538
     10.90533      0.51163      8.06960        -0.022243      0.023462      0.003948
      8.75201      0.53717      9.04618         0.004299     -0.033665      0.013614
      3.88181      9.86196      8.61103        -0.019580     -0.175819     -0.035243
      5.24594      7.91397      9.00521        -0.002681     -0.064459     -0.054061
      9.27554      6.56480      7.70211        -0.022110      0.015819     -0.006451
      8.36606     10.73029      8.95723        -0.075167     -0.015111      0.003066
      6.09639     10.37946      9.16314        -0.082791     -0.078971     -0.006135
      9.92848      8.77047      7.70589        -0.007390     -0.029459      0.008149
      6.74955      6.11449      8.83940        -0.082422     -0.030989     -0.077405
      4.69879      6.06776      7.63991        -0.169006     -0.125836     -0.142261
     -0.31705      8.56634      8.71627         0.009082      0.019766      0.003502
     -0.45482      8.18815     11.46309         0.010725      0.087399     -0.054426
     -0.48254      7.50811     12.37893        -0.019472     -0.062232      0.073873
    total drift:                                0.004498     -0.002044      0.006501

  FREE ENERGIE OF THE ION-ELECTRON SYSTEM (eV)
  free  energy   TOTEN  =      -490.28323203 eV

  energy  without entropy=     -490.25045787  energy(sigma->0) =     -490.26684495

 total charge

[...]

 magnetization (x)

# of ion       s       p       d       tot
    1       -0.000  -0.000   0.000  -0.000
    2       -0.000  -0.001   0.000  -0.002
    3        0.000  -0.000   0.000  -0.000
    4        0.000   0.000   0.000   0.000
    5       -0.000  -0.000   0.000  -0.000
    6       -0.000  -0.000   0.000  -0.000
    7       -0.000  -0.000   0.000  -0.000
    8        0.000   0.000   0.000   0.000
    9       -0.000  -0.000   0.000  -0.000
   10       -0.000  -0.000   0.000  -0.000
   11        0.000   0.000   0.000   0.000
   12        0.000  -0.000   0.000  -0.000
   13        0.000   0.000   0.000   0.000
   14       -0.000  -0.000   0.000  -0.000
   15       -0.000  -0.000   0.000  -0.000
   16       -0.000  -0.000   0.000  -0.000
   17        0.000  -0.000   0.000  -0.000
   18        0.000   0.000   0.000   0.000
   19       -0.000  -0.000   0.000  -0.000
   20       -0.000  -0.000   0.000  -0.000
   21        0.000   0.000   0.000   0.000
   22        0.000  -0.000   0.000  -0.000
   23       -0.000  -0.000   0.000  -0.000
   24       -0.000  -0.000   0.000  -0.000
   25        0.000  -0.000   0.000  -0.000
   26       -0.000  -0.000   0.000  -0.000
   27        0.000   0.000   0.000   0.000
   28       -0.000  -0.000   0.000  -0.000
   29       -0.000  -0.000   0.000  -0.000
   30        0.000  -0.000   0.000   0.000
   31        0.000   0.000   0.000   0.000
   32       -0.000   0.000   0.000   0.000
   33        0.000   0.000   0.000   0.000
   34        0.000   0.000   0.000   0.000
   35       -0.000  -0.000   0.000  -0.000
   36        0.000   0.000   0.000   0.000
   37        0.000   0.000   0.000   0.000
   38       -0.000  -0.000   0.000  -0.000
   39       -0.000  -0.000   0.000  -0.000
   40       -0.000  -0.000   0.000  -0.000
   41       -0.000  -0.000   0.000  -0.000
   42       -0.000   0.000   0.000   0.000
   43       -0.000  -0.000   0.000  -0.000
   44        0.000  -0.000   0.000  -0.000
   45       -0.000  -0.000   0.000  -0.000
   46        0.000  -0.000   0.000  -0.000
   47       -0.000   0.000   0.000   0.000
   48        0.000   0.000   0.000   0.000
   49       -0.000   0.000   0.000   0.000
   50       -0.000  -0.000   0.000  -0.000
   51       -0.000  -0.000   0.000  -0.000
   52        0.000   0.000   0.000   0.000
   53       -0.000  -0.000   0.000  -0.000
   54        0.000   0.000   0.000   0.000
   55        0.000  -0.000   0.000  -0.000
   56       -0.000  -0.000   0.000  -0.000
   57       -0.000  -0.000   0.000  -0.000
   58       -0.000   0.000   0.000  -0.000
   59        0.000  -0.000   0.000  -0.000
tot         -0.001  -0.002   0.000  -0.003