 vasp.5.4.4.18Apr17-6-g9f103f2a35 (build Sep 02 2021 13:24:58) complex

 executed on             LinuxIFC date 2023.01.15  13:02:12

 INCAR:
 POTCAR:    PAW_PBE C 08Apr2002
 POTCAR:    PAW_PBE N 08Apr2002
 POTCAR:    PAW_PBE C 08Apr2002
 POTCAR:    PAW_PBE Cr_pv 02Aug2007
 POTCAR:    PAW_PBE C 08Apr2002
   VRHFIN =C: s2p2

   TITEL  = PAW_PBE C 08Apr2002
   POMASS =   12.011; ZVAL   =    4.000    mass and valenz
   ENMAX  =  400.000; ENMIN  =  300.000 eV

[...]

   TITEL  = PAW_PBE C 08Apr2002
   POMASS =   12.011; ZVAL   =    4.000    mass and valenz
   ENMAX  =  400.000; ENMIN  =  300.000 eV

   TITEL  = PAW_PBE Cr_pv 02Aug2007
   POMASS =   51.996; ZVAL   =   12.000    mass and valenz
   ENMAX  =  265.681; ENMIN  =  199.261 eV

 Optimization of the real space projectors (new method)

 maximal supplied QI-value         = 25.13
 optimisation between [QCUT,QGAM] = [ 11.81, 23.88] = [ 39.08,159.64] Ry
 Optimized for a Real-space Cutoff    1.18 Angstroem

   l    n(q)    QCUT    max X(q) W(low)/X(q) W(high)/X(q)  e(spline)
   0      8    11.813   115.676    0.10E-03    0.16E-03    0.35E-06
   0      8    11.813    87.132    0.10E-03    0.16E-03    0.35E-06
   1      8    11.813     4.429    0.16E-03    0.13E-04    0.22E-06
   1      8    11.813     2.733    0.13E-03    0.10E-04    0.18E-06
 Optimization of the real space projectors (new method)

[...]

   l    n(q)    QCUT    max X(q) W(low)/X(q) W(high)/X(q)  e(spline)
   0      8    11.813   115.676    0.10E-03    0.16E-03    0.35E-06
   0      8    11.813    87.132    0.10E-03    0.16E-03    0.35E-06
   1      8    11.813     4.429    0.16E-03    0.13E-04    0.22E-06
   1      8    11.813     2.733    0.13E-03    0.10E-04    0.18E-06
 Optimization of the real space projectors (new method)

 maximal supplied QI-value         = 16.25
 optimisation between [QCUT,QGAM] = [ 11.86, 23.89] = [ 39.41,159.82] Ry
 Optimized for a Real-space Cutoff    1.33 Angstroem

   l    n(q)    QCUT    max X(q) W(low)/X(q) W(high)/X(q)  e(spline)
   1      9    11.864     3.262    0.48E-04    0.16E-03    0.14E-06
   1      9    11.864     5.741    0.74E-04    0.40E-03    0.35E-06
   2      9    11.864    60.438    0.17E-03    0.21E-03    0.26E-06
   2      9    11.864    55.380    0.17E-03    0.21E-03    0.27E-06
   0      9    11.864    80.273    0.40E-04    0.47E-04    0.12E-06
   0      9    11.864    36.654    0.35E-04    0.41E-04    0.11E-06
  PAW_PBE C 08Apr2002                   :
  PAW_PBE N 08Apr2002                   :
  PAW_PBE C 08Apr2002                   :
  PAW_PBE Cr_pv 02Aug2007               :

 POSCAR: POSCAR-clean
  positions in cartesian coordinates
 exchange correlation table for  LEXCH =        8
   RHO(1)=    0.500       N(1)  =     2000
   RHO(2)=  100.500       N(2)  =     4000

 ion  position               nearest neighbor table
   1  0.000  1.000  0.498-   2 1.42  60 1.42  70 1.43
   2  0.056  0.111  0.498-   1 1.42  13 1.42  15 1.43
   3  0.168  0.002  0.498-   4 1.42  62 1.43  60 1.43
   4  0.224  0.113  0.498-   3 1.42  15 1.42  17 1.44
   5  0.334  0.002  0.498-   6 1.42  62 1.43  64 1.43
   6  0.390  0.113  0.498-   5 1.42  19 1.42  17 1.44
   7  0.500  1.000  0.498-   8 1.42  64 1.42  66 1.43
   8  0.556  0.111  0.498-   7 1.42  21 1.42  19 1.43
   9  0.666  0.998  0.498-  10 1.42  66 1.42  68 1.44
  10  0.722  0.109  0.498-   9 1.42  23 1.43  21 1.43
  11  0.832  0.998  0.498-  12 1.42  70 1.42  68 1.44
  12  0.888  0.109  0.498-  11 1.42  23 1.43  13 1.43
  13  0.999  0.165  0.498-  14 1.42   2 1.42  12 1.43
  14  0.054  0.277  0.499-  13 1.42  25 1.42  27 1.43
  15  0.167  0.168  0.498-  16 1.42   4 1.42   2 1.43
  16  0.223  0.280  0.500-  15 1.42  27 1.43  29 1.44
  17  0.335  0.170  0.499-  18 1.42   4 1.44   6 1.44
  18  0.391  0.281  0.503-  17 1.42  31 1.44  29 1.44
  19  0.501  0.168  0.498-  20 1.42   6 1.42   8 1.43
  20  0.557  0.280  0.500-  19 1.42  33 1.43  31 1.44
  21  0.667  0.165  0.498-  22 1.42   8 1.42  10 1.43
  22  0.723  0.277  0.498-  21 1.42  35 1.42  33 1.43
  23  0.833  0.165  0.498-  24 1.42  10 1.43  12 1.43
  24  0.888  0.276  0.498-  23 1.42  25 1.42  35 1.43
  25  0.999  0.332  0.498-  14 1.42  26 1.42  24 1.42
  26  0.054  0.444  0.499-  39 1.42  37 1.42  25 1.42
  27  0.165  0.333  0.500-  28 1.42  16 1.43  14 1.43
  28  0.219  0.444  0.502-  41 1.41  27 1.42  39 1.42
  29  0.335  0.338  0.503-  30 1.41  18 1.44  16 1.44
  30  0.387  0.448  0.510-  41 1.41  29 1.41  71 2.00
  31  0.503  0.338  0.504-  32 1.41  18 1.44  20 1.44
  32  0.562  0.448  0.510-  43 1.41  31 1.41  71 2.00
  33  0.668  0.333  0.500-  34 1.42  20 1.43  22 1.43
  34  0.725  0.444  0.501-  43 1.41  33 1.42  45 1.42
  35  0.833  0.332  0.498-  22 1.42  36 1.42  24 1.43
  36  0.890  0.444  0.498-  45 1.42  37 1.42  35 1.42
  37  0.000  0.500  0.498-  36 1.42  26 1.42  38 1.42
  38  0.056  0.611  0.498-  47 1.42  49 1.42  37 1.42
  39  0.165  0.500  0.500-  26 1.42  28 1.42  40 1.42
  40  0.220  0.611  0.500-  49 1.42  51 1.42  39 1.42
  41  0.329  0.499  0.505-  30 1.41  28 1.41  42 1.44
  42  0.385  0.612  0.505-  53 1.41  51 1.41  41 1.44
  43  0.671  0.499  0.505-  32 1.41  34 1.41  44 1.44
  44  0.727  0.612  0.505-  55 1.41  57 1.41  43 1.44
  45  0.836  0.500  0.499-  36 1.42  34 1.42  46 1.42
  46  0.891  0.611  0.499-  47 1.42  57 1.42  45 1.42
  47  0.001  0.667  0.498-  46 1.42  38 1.42  48 1.42
  48  0.057  0.779  0.498-  59 1.42  47 1.42  61 1.43
  49  0.166  0.667  0.499-  40 1.42  38 1.42  50 1.42
  50  0.222  0.779  0.498-  63 1.42  49 1.42  61 1.42
  51  0.331  0.667  0.502-  42 1.41  52 1.42  40 1.42
  52  0.388  0.778  0.500-  51 1.42  65 1.43  63 1.43
  53  0.494  0.663  0.510-  42 1.41  54 1.41  71 2.00
  54  0.553  0.773  0.503-  53 1.41  67 1.44  65 1.44
  55  0.669  0.663  0.510-  44 1.41  56 1.41  71 2.00
  56  0.721  0.773  0.504-  55 1.41  67 1.44  69 1.44
  57  0.837  0.667  0.501-  44 1.41  58 1.42  46 1.42
  58  0.891  0.778  0.500-  57 1.42  69 1.42  59 1.43
  59  0.002  0.835  0.498-  60 1.42  48 1.42  58 1.43
  60  0.057  0.946  0.498-  59 1.42   1 1.42   3 1.43
  61  0.168  0.835  0.498-  62 1.42  50 1.42  48 1.43
  62  0.223  0.946  0.498-  61 1.42   3 1.43   5 1.43
  63  0.333  0.835  0.499-  64 1.42  50 1.42  52 1.43
  64  0.389  0.946  0.498-  63 1.42   7 1.42   5 1.43
  65  0.499  0.832  0.500-  66 1.42  52 1.43  54 1.44
  66  0.555  0.943  0.498-  65 1.42   9 1.42   7 1.43
  67  0.665  0.830  0.503-  68 1.42  56 1.44  54 1.44
  68  0.721  0.941  0.499-  67 1.42   9 1.44  11 1.44
  69  0.833  0.832  0.500-  70 1.42  58 1.42  56 1.44
  70  0.889  0.943  0.498-  69 1.42  11 1.42   1 1.43
  71  0.528  0.556  0.554-  55 2.00  32 2.00  53 2.00  30 2.00

IMPORTANT INFORMATION: All symmetrisations will be switched off!
NOSYMM: (Re-)initialisation of all symmetry stuff for point group C_1.

 KPOINTS: K-Points

Automatic generation of k-mesh.
Space group operators:
 irot       det(A)        alpha          n_x          n_y          n_z        tau_x        tau_y        tau_z
    1     1.000000     0.000000     1.000000     0.000000     0.000000     0.000000     0.000000     0.000000

 Subroutine IBZKPT returns following result:

 Found      4 irreducible k-points:

 Following reciprocal coordinates:
            Coordinates               Weight
  0.000000  0.000000  0.000000      1.000000
  0.500000  0.000000  0.000000      1.000000
 -0.000000  0.500000  0.000000      1.000000
  0.500000  0.500000  0.000000      1.000000

 Following cartesian coordinates:
            Coordinates               Weight
  0.000000  0.000000  0.000000      1.000000
  0.033606  0.019589  0.000000      1.000000
 -0.000000  0.039178  0.000000      1.000000
  0.033606  0.058767  0.000000      1.000000

 SYSTEM =  unknown system
 POSCAR =  POSCAR-clean

 Startparameter for this run:
   NWRITE =      2    write-flag & timer
   PREC   = accura    normal or accurate (medium, high low for compatibility)
   ISTART =      0    job   : 0-new  1-cont  2-samecut
   ICHARG =      2    charge: 1-file 2-atom 10-const
   ISPIN  =      2    spin polarized calculation?
   LNONCOLLINEAR =      F non collinear calculations
   LSORBIT =      F    spin-orbit coupling
   INIWAV =      1    electr: 0-lowe 1-rand  2-diag
   LASPH  =      F    aspherical Exc in radial PAW
   METAGGA=      F    non-selfconsistent MetaGGA calc.

 Electronic Relaxation 1
   ENCUT  =  550.0 eV  40.42 Ry    6.36 a.u.  28.45 28.25 28.68*2*pi/ulx,y,z
   ENINI  =  550.0     initial cutoff
   ENAUG  =  644.9 eV  augmentation charge cutoff
   NELM   =     50;   NELMIN=  2; NELMDL= -5     # of ELM steps
   EDIFF  = 0.1E-04   stopping-criterion for ELM
   LREAL  =      T    real-space projection
   NLSPLINE    = F    spline interpolate recip. space projectors
   LCOMPAT=      F    compatible to vasp.4.4
   GGA_COMPAT  = T    GGA compatible to vasp.4.4-vasp.4.6
   LMAXPAW     = -100 max onsite density
   LMAXMIX     =    2 max onsite mixed and CHGCAR
   VOSKOWN=      0    Vosko Wilk Nusair interpolation
   ROPT   =   -0.00025  -0.00025  -0.00025  -0.00025
 Ionic relaxation
   EDIFFG = -.5E-01   stopping-criterion for IOM
   NSW    =    400    number of steps for IOM
   NBLOCK =      1;   KBLOCK =    400    inner block; outer block
   IBRION =      2    ionic relax: 0-MD 1-quasi-New 2-CG
   NFREE  =      1    steps in history (QN), initial steepest desc. (CG)
   ISIF   =      3    stress and relaxation
   IWAVPR =     11    prediction:  0-non 1-charg 2-wave 3-comb
   ISYM   =      0    0-nonsym 1-usesym 2-fastsym
   LCORR  =      T    Harris-Foulkes like correction to forces

   POTIM  = 0.3000    time-step for ionic-motion
   TEIN   =    0.0    initial temperature
   TEBEG  =    0.0;   TEEND  =   0.0 temperature during run
   SMASS  =  -3.00    Nose mass-parameter (am)
   estimated Nose-frequenzy (Omega)   =  0.10E-29 period in steps =****** mass=  -0.506E-26a.u.
   SCALEE = 1.0000    scale energy and forces
   NPACO  =    256;   APACO  = 16.0  distance and # of slots for P.C.
   PSTRESS=    0.0 pullay stress

  Mass of Ions in am
   POMASS =  12.01 14.00 12.01 52.00
  Ionic Valenz
   ZVAL   =   4.00  5.00  4.00 12.00
  Atomic Wigner-Seitz radii
  virtual crystal weights
   VCA    =   1.00  1.00  1.00  1.00
   NELECT =     293.0000    total number of electrons
   NUPDOWN=      -1.0000    fix difference up-down

 DOS related values:
   EMIN   =  10.00;   EMAX   =-10.00  energy-range for DOS
   EFERMI =   0.00
   ISMEAR =     0;   SIGMA  =   0.10  broadening in eV -4-tet -1-fermi 0-gaus

 Electronic relaxation 2 (details)
   IALGO  =     68    algorithm
   LDIAG  =      T    sub-space diagonalisation (order eigenvalues)
   LSUBROT=      F    optimize rotation matrix (better conditioning)
   TURBO    =      0    0=normal 1=particle mesh
   IRESTART =      0    0=no restart 2=restart with 2 vectors
   NREBOOT  =      0    no. of reboots
   NMIN     =      0    reboot dimension
   EREF     =   0.00    reference energy to select bands
   IMIX   =      4    mixing-type and parameters
     AMIX     =   0.40;   BMIX     =  1.00
     AMIX_MAG =   1.60;   BMIX_MAG =  1.00
     AMIN     =   0.10
     WC   =   100.;   INIMIX=   1;  MIXPRE=   1;  MAXMIX= -45

 Intra band minimization:
[...]
    -7.428571473 12.749503263  0.000000000    -0.000039482  0.078411424  0.000000000
     0.000000000  0.000000000 15.000000000     0.000000000  0.000000000  0.066666667

  length of vectors
    14.857144830 14.755795728 15.000000000     0.077876545  0.078411434  0.066666667

 FORCES acting on ions
    electron-ion (+dipol)            ewald-force                    non-local-force                 convergence-correction
   -.149E+00 0.103E+01 0.790E+01   0.295E+00 -.106E+01 -.792E+01   -.139E+00 0.278E-01 0.252E-01   -.117E-04 -.306E-04 0.112E-04
   -.438E+01 -.114E+01 0.764E+01   0.463E+01 0.118E+01 -.766E+01   -.247E+00 -.441E-01 0.207E-01   0.148E-05 -.419E-04 0.438E-05
   0.483E+00 0.763E+00 0.740E+01   -.478E+00 -.648E+00 -.742E+01   -.849E-02 -.125E+00 0.248E-01   -.200E-04 -.282E-04 -.188E-06
   -.185E+01 0.359E+00 0.767E+01   0.190E+01 -.278E+00 -.768E+01   -.596E-01 -.884E-01 0.107E-01   -.300E-04 -.528E-05 0.695E-05
   0.193E+01 0.181E+01 0.665E+01   -.215E+01 -.167E+01 -.668E+01   0.216E+00 -.154E+00 0.190E-01   0.248E-04 -.616E-04 0.131E-04
   0.396E+01 -.786E+00 0.699E+01   -.419E+01 0.896E+00 -.700E+01   0.235E+00 -.115E+00 0.306E-02   0.111E-04 -.115E-04 0.247E-04
   0.847E+01 0.123E+01 0.782E+01   -.971E+01 -.850E+00 -.785E+01   0.126E+01 -.379E+00 0.232E-01   0.170E-03 -.211E-05 0.126E-04
   0.804E+01 -.417E+01 0.787E+01   -.883E+01 0.462E+01 -.791E+01   0.806E+00 -.456E+00 0.368E-01   0.160E-03 -.714E-04 0.116E-04
   -.176E+01 -.141E+01 0.930E+01   0.204E+01 0.105E+01 -.940E+01   -.277E+00 0.371E+00 0.108E+00   -.377E-04 0.425E-04 0.717E-05
   0.323E+00 -.267E+02 0.712E+01   -.313E+00 0.328E+02 -.715E+01   -.198E-01 -.605E+01 0.346E-01   -.223E-04 -.744E-04 -.915E-06
   -.816E+01 0.119E+01 0.740E+01   0.944E+01 -.884E+00 -.743E+01   -.129E+01 -.307E+00 0.330E-01   -.144E-03 -.490E-04 0.277E-04
   -.731E+01 -.518E+01 0.674E+01   0.802E+01 0.547E+01 -.676E+01   -.709E+00 -.276E+00 0.183E-01   -.133E-03 -.305E-04 0.152E-04
   -.152E+01 0.159E+01 0.685E+01   0.191E+01 -.139E+01 -.686E+01   -.395E+00 -.191E+00 0.124E-02   -.952E-04 -.327E-04 0.115E-04
   -.332E+00 0.203E+01 0.643E+01   0.483E+00 -.190E+01 -.645E+01   -.149E+00 -.124E+00 0.194E-01   -.725E-04 -.554E-04 0.112E-04
   0.169E+01 0.438E+01 0.874E+01   -.152E+01 -.423E+01 -.876E+01   -.176E+00 -.175E+00 0.276E-01   -.140E-04 -.539E-04 0.651E-05
   -.224E+01 0.629E+01 0.997E+01   0.277E+01 -.602E+01 -.101E+02   -.539E+00 -.273E+00 0.974E-01   0.555E-05 0.159E-05 0.363E-04
   0.481E+00 0.574E+01 0.733E+01   -.574E+00 -.532E+01 -.736E+01   0.999E-01 -.440E+00 0.275E-01   0.200E-04 -.107E-04 0.343E-04
   -.136E+00 0.671E+01 0.586E+01   0.960E-01 -.603E+01 -.550E+01   0.453E-01 -.687E+00 -.366E+00   0.263E-04 -.519E-05 0.927E-04
   0.202E+01 0.208E+01 0.846E+01   -.248E+01 -.171E+01 -.848E+01   0.465E+00 -.373E+00 0.223E-01   0.669E-04 -.115E-04 0.310E-04
   0.375E+01 0.606E+01 0.981E+01   -.435E+01 -.565E+01 -.989E+01   0.587E+00 -.413E+00 0.813E-01   -.134E-06 -.201E-05 0.656E-04
   0.325E+01 -.580E+01 0.770E+01   -.425E+01 0.669E+01 -.770E+01   0.100E+01 -.894E+00 0.354E-02   0.104E-03 -.129E-03 0.173E-05
   0.105E+01 -.107E+00 0.806E+01   -.114E+01 0.714E+00 -.808E+01   0.735E-01 -.590E+00 0.275E-01   0.522E-04 -.900E-04 0.111E-04
   -.492E+01 -.816E+01 0.598E+01   0.594E+01 0.904E+01 -.597E+01   -.101E+01 -.877E+00 -.126E-01   -.722E-04 -.836E-04 0.572E-05
   -.323E+01 -.386E+00 0.607E+01   0.325E+01 0.991E+00 -.610E+01   -.731E-02 -.596E+00 0.215E-01   -.199E-04 -.116E-03 0.957E-05
   0.181E+01 0.146E+01 0.525E+01   -.160E+01 -.130E+01 -.523E+01   -.194E+00 -.146E+00 -.250E-01   -.728E-04 -.942E-04 0.171E-04
   0.249E+01 0.342E+01 0.556E+01   -.242E+01 -.332E+01 -.559E+01   -.768E-01 -.911E-01 0.275E-01   -.556E-04 -.197E-04 0.206E-04
   0.316E+01 0.963E+01 0.686E+01   -.288E+01 -.959E+01 -.683E+01   -.282E+00 -.395E-01 -.278E-01   0.766E-05 0.382E-05 0.166E-04
   0.103E+02 0.681E+01 0.577E+01   -.100E+02 -.667E+01 -.588E+01   -.235E+00 -.133E+00 0.110E+00   0.631E-04 -.369E-04 0.199E-04
   -.455E+00 0.172E+02 0.124E+02   0.743E+00 -.162E+02 -.126E+02   -.298E+00 -.987E+00 0.222E+00   -.142E-04 0.315E-04 0.967E-04
   -.763E+01 0.356E+02 0.268E+02   0.138E+02 -.320E+02 -.259E+02   -.620E+01 -.355E+01 -.833E+00   -.230E-04 -.365E-04 0.111E-03
   0.205E+01 0.179E+02 0.111E+02   -.239E+01 -.169E+02 -.113E+02   0.346E+00 -.104E+01 0.215E+00   0.505E-04 -.142E-04 0.119E-03
   0.770E+01 0.345E+02 0.238E+02   -.139E+02 -.310E+02 -.229E+02   0.617E+01 -.356E+01 -.906E+00   0.427E-04 -.554E-05 0.161E-03
   -.437E+01 0.777E+01 0.796E+01   0.401E+01 -.762E+01 -.792E+01   0.367E+00 -.141E+00 -.368E-01   0.453E-04 -.920E-06 0.386E-04
   -.112E+02 0.604E+01 0.732E+01   0.109E+02 -.583E+01 -.743E+01   0.286E+00 -.201E+00 0.122E+00   0.111E-04 -.424E-04 0.505E-04
   -.115E+01 -.179E+01 0.667E+01   0.110E+01 0.206E+01 -.665E+01   0.414E-01 -.271E+00 -.197E-01   -.520E-05 -.986E-04 0.110E-04
   -.327E+01 0.363E+01 0.748E+01   0.323E+01 -.346E+01 -.752E+01   0.405E-01 -.178E+00 0.383E-01   -.162E-04 -.180E-04 0.142E-04
   -.461E+00 -.648E+00 0.628E+01   0.484E+00 0.732E+00 -.629E+01   -.104E-01 -.686E-01 0.971E-02   -.184E-04 0.330E-04 0.218E-04
   -.701E+00 -.347E+00 0.631E+01   0.671E+00 0.356E+00 -.632E+01   0.415E-01 -.131E-01 0.128E-01   -.546E-05 -.183E-04 0.181E-04
   0.613E+01 0.537E-01 0.410E+01   -.603E+01 -.530E-01 -.406E+01   -.104E+00 0.670E-02 -.376E-01   -.346E-04 -.780E-05 0.149E-04
   0.503E+01 0.543E+00 0.413E+01   -.502E+01 -.615E+00 -.410E+01   0.125E-02 0.714E-01 -.344E-01   0.605E-05 0.411E-04 0.178E-04
   0.253E+02 0.105E+02 0.138E+02   -.244E+02 -.110E+02 -.144E+02   -.878E+00 0.526E+00 0.567E+00   0.123E-04 -.579E-04 0.519E-04
   0.248E+02 -.710E+01 0.141E+02   -.239E+02 0.739E+01 -.146E+02   -.837E+00 -.294E+00 0.544E+00   0.263E-04 0.917E-04 0.437E-04
   -.251E+02 0.817E+01 0.133E+02   0.242E+02 -.860E+01 -.138E+02   0.854E+00 0.443E+00 0.555E+00   0.215E-05 -.274E-04 0.124E-03
   -.246E+02 -.773E+01 0.137E+02   0.238E+02 0.814E+01 -.143E+02   0.805E+00 -.415E+00 0.538E+00   -.391E-04 0.697E-04 0.141E-03
   -.441E+01 -.466E-01 0.672E+01   0.430E+01 0.114E+00 -.669E+01   0.878E-01 -.582E-01 -.265E-01   0.234E-05 -.204E-04 0.171E-04
   -.478E+01 -.986E+00 0.663E+01   0.471E+01 0.101E+01 -.660E+01   0.464E-01 -.237E-01 -.266E-01   -.180E-04 0.319E-04 0.203E-04
   -.292E+01 -.450E+01 0.740E+01   0.288E+01 0.451E+01 -.744E+01   0.376E-01 -.141E-01 0.366E-01   -.106E-04 -.193E-04 0.979E-05
   -.159E+01 -.302E+01 0.661E+01   0.153E+01 0.303E+01 -.659E+01   0.475E-01 0.648E-04 -.175E-01   -.250E-04 0.352E-04 0.522E-05
   0.458E+01 -.318E+01 0.555E+01   -.457E+01 0.313E+01 -.558E+01   -.215E-01 0.234E-01 0.271E-01   -.658E-04 -.360E-04 0.170E-04
   0.236E+01 -.309E+01 0.515E+01   -.246E+01 0.304E+01 -.513E+01   0.110E+00 0.613E-01 -.237E-01   0.821E-06 0.734E-04 0.125E-04
   0.133E+02 -.554E+01 0.622E+01   -.131E+02 0.521E+01 -.634E+01   -.173E+00 0.318E+00 0.111E+00   0.335E-04 0.724E-04 0.253E-04
   0.471E+01 -.623E+01 0.710E+01   -.503E+01 0.593E+01 -.707E+01   0.322E+00 0.270E+00 -.323E-01   0.723E-04 0.691E-04 0.229E-04
   -.702E+01 -.295E+02 0.256E+02   0.133E+02 0.255E+02 -.247E+02   -.627E+01 0.405E+01 -.868E+00   0.365E-04 0.111E-03 0.805E-04
   -.118E+01 -.105E+02 0.115E+02   0.144E+01 0.857E+01 -.117E+02   -.271E+00 0.191E+01 0.203E+00   0.143E-04 0.981E-04 0.583E-04
   0.615E+01 -.328E+02 0.247E+02   -.123E+02 0.290E+02 -.238E+02   0.619E+01 0.379E+01 -.875E+00   0.113E-04 0.750E-04 0.187E-03
   -.261E+00 -.146E+02 0.112E+02   0.519E+00 0.133E+02 -.115E+02   -.258E+00 0.134E+01 0.246E+00   -.383E-04 0.661E-04 0.126E-03
   -.125E+02 -.571E+01 0.763E+01   0.123E+02 0.555E+01 -.775E+01   0.236E+00 0.138E+00 0.124E+00   0.166E-04 0.203E-05 0.653E-04
   -.555E+01 -.935E+01 0.799E+01   0.547E+01 0.930E+01 -.796E+01   0.822E-01 0.444E-01 -.309E-01   -.251E-04 0.137E-04 0.506E-04
   -.233E+01 -.250E+01 0.796E+01   0.235E+01 0.252E+01 -.799E+01   -.149E-03 -.285E-01 0.316E-01   0.143E-04 -.840E-05 0.129E-04
   -.247E+01 -.470E+01 0.769E+01   0.259E+01 0.472E+01 -.770E+01   -.125E+00 -.114E-01 0.434E-02   -.420E-04 0.214E-04 0.379E-05
   0.850E+00 -.198E+01 0.607E+01   -.923E+00 0.200E+01 -.609E+01   0.605E-01 -.300E-01 0.230E-01   -.118E-04 0.169E-04 0.424E-05
   0.236E+00 -.269E+01 0.602E+01   -.343E+00 0.272E+01 -.600E+01   0.112E+00 -.241E-01 -.165E-01   0.398E-04 0.343E-06 0.444E-05
   0.611E+01 -.125E+01 0.647E+01   -.631E+01 0.114E+01 -.650E+01   0.206E+00 0.111E+00 0.213E-01   0.373E-04 0.672E-04 0.152E-04
   0.562E+01 -.446E+01 0.688E+01   -.621E+01 0.422E+01 -.689E+01   0.563E+00 0.243E+00 0.492E-02   0.536E-04 0.995E-05 0.145E-04
   0.525E+01 0.254E+01 0.105E+02   -.497E+01 -.417E+01 -.105E+02   -.280E+00 0.162E+01 0.590E-01   0.737E-04 0.132E-03 0.277E-04
   0.254E+02 0.768E+01 0.890E+01   -.306E+02 -.109E+02 -.894E+01   0.524E+01 0.325E+01 0.380E-01   0.783E-04 0.701E-04 0.139E-04
   -.641E+01 0.237E+01 0.523E+01   0.669E+01 -.444E+01 -.481E+01   -.276E+00 0.207E+01 -.422E+00   -.452E-05 0.111E-03 0.719E-04
   -.234E+02 0.644E+01 0.669E+01   0.287E+02 -.997E+01 -.663E+01   -.526E+01 0.354E+01 -.528E-01   -.368E-04 0.343E-04 0.295E-04
   -.174E+01 -.507E+01 0.988E+01   0.148E+01 0.466E+01 -.997E+01   0.255E+00 0.421E+00 0.793E-01   -.963E-04 0.453E-04 0.761E-04
   -.591E+01 -.511E+01 0.842E+01   0.641E+01 0.466E+01 -.844E+01   -.481E+00 0.461E+00 0.173E-01   -.870E-04 -.286E-04 0.364E-04
   -.108E+01 0.447E+01 -.633E+03   0.106E+01 -.452E+01 0.615E+03   0.371E-01 0.593E-01 0.182E+02   0.337E-03 0.301E-03 0.888E-03
   0.173E+00 -.204E+00 -.182E+02   -.775E-13 0.421E-12 0.000E+00   -.182E+00 0.212E+00 0.182E+02   0.312E-03 0.186E-03 0.346E-02

 POSITION                                       TOTAL-FORCE (eV/Angst)
     -0.00389     -0.00211      7.46459         0.008554      0.004062      0.000065
     -0.00016      1.41835      7.46584         0.005172     -0.005763      0.000463
      2.48120      0.02589      7.46292        -0.003341     -0.009401     -0.001403
      2.47949      1.44658      7.47354        -0.007602     -0.006651      0.002258
      4.95776      0.02820      7.46582        -0.000322     -0.014599     -0.004703
      4.95425      1.44598      7.47558        -0.002897     -0.004373     -0.000718
      7.44297      0.00424      7.46563         0.017824      0.002943     -0.001351
      7.42797      1.42424      7.46488         0.014751     -0.015024      0.000793
      2.48001     12.72628      7.47447        -0.000096      0.011716      0.006065
      9.90971      1.38465      7.46449        -0.009136      0.020517      0.003006
      4.94122     12.73163      7.47487        -0.012629      0.001178      0.000427
     12.38155      1.39842      7.46579        -0.007349      0.008126     -0.003952
     13.61244      2.11625      7.46714         0.000730      0.008450     -0.004583
     -1.24962      3.52933      7.47726         0.002254      0.000915     -0.001296
      1.23816      2.14403      7.47545        -0.003698     -0.016905      0.002055
      1.23610      3.56764      7.50119        -0.001516      0.004827     -0.001655
      3.71671      2.17102      7.49101         0.007983     -0.018127     -0.000388
      3.71601      3.59040      7.53801         0.005163      0.006454     -0.005374
      6.19713      2.14464      7.47592        -0.000072      0.000705     -0.000908
      6.19853      3.57080      7.50088        -0.012644     -0.002536     -0.001740
      8.67958      2.10270      7.46344         0.005121     -0.005789      0.002594
      8.68573      3.52560      7.47032        -0.021118      0.017285      0.004500
     11.13966      2.09546      7.46458        -0.000967     -0.001311     -0.000396
     11.13736      3.52259      7.46624         0.019051      0.009245     -0.003338
     12.37271      4.23933      7.47454         0.006426      0.003006     -0.005664
     -2.48874      5.65636      7.48131        -0.001836      0.006906     -0.006235
     -0.01739      4.24633      7.50025         0.000336     -0.001720      0.003495
     -0.04210      5.66265      7.52582         0.017439     -0.001522      0.003648
      2.47424      4.31063      7.55069         0.002370      0.009860      0.002342
      2.42921      5.72694      7.64022         0.014060      0.000290      0.007638
      4.96164      4.31221      7.55421        -0.002121     -0.014587     -0.000571
      5.00522      5.72458      7.64668        -0.009491     -0.007689      0.001889
      7.45026      4.24467      7.49469         0.005915      0.004493      0.006168
      7.47260      5.66323      7.51877        -0.010138      0.003787      0.008182
      9.91374      4.23839      7.46851        -0.006378      0.002630     -0.000855
      9.91927      5.66466      7.47366        -0.002872     -0.001804     -0.000535
     -3.71359      6.37199      7.47403         0.013343      0.013494     -0.006325
     -3.71340      7.79436      7.47395         0.011270     -0.002558     -0.005275
     -1.26743      6.37421      7.50429        -0.004134      0.005828     -0.001797
     -1.26642      7.79834      7.50402         0.010202      0.001060     -0.003086
      1.17932      6.37268      7.57850         0.008321     -0.005446      0.002908
      1.17769      7.80476      7.57797         0.010715      0.008281      0.005137
      6.25377      6.37201      7.57838        -0.013800      0.007817      0.001878
      6.25069      7.80922      7.57709        -0.022083      0.001158     -0.001402
      8.70023      6.37887      7.49321        -0.018184      0.006767      0.007447
      8.69908      7.80003      7.49323        -0.023180      0.004144      0.005723
     -4.93768      8.50788      7.47372         0.000514     -0.007934      0.000262
     -4.94391      9.93188      7.46848        -0.011406      0.010671     -0.000732
     -2.48593      8.51116      7.48128        -0.011466     -0.028596     -0.006805
     -2.47992      9.93274      7.47462         0.011446      0.009031     -0.006426
     -0.03776      8.51497      7.52486         0.012570     -0.004866      0.000188
     -0.01266      9.93485      7.49934         0.002374     -0.024074     -0.000138
      2.43052      8.45305      7.64254         0.020724     -0.024710      0.016178
      2.47266      9.85806      7.55325         0.004872      0.026683      0.006453
      4.99957      8.45815      7.64423        -0.010877     -0.008299     -0.007775
      4.95608      9.87333      7.55286        -0.012938     -0.011741     -0.001008
      7.47002      8.51471      7.51780        -0.002734     -0.022435      0.003831
      7.44529      9.93043      7.49429        -0.003913      0.004913      0.000881
     -6.17890     10.63934      7.47028         0.013362     -0.008233      0.001544
     -6.18488     12.05686      7.46295        -0.008221      0.003859     -0.000886
     -3.71151     10.64522      7.46605        -0.012249     -0.004467     -0.003918
     -3.71044     12.06600      7.46403         0.005277      0.005752     -0.003639
     -1.24334     10.64231      7.47702         0.007095      0.002492     -0.004926
     -1.23218     12.05855      7.46707        -0.024866      0.001066     -0.005603
      1.24714     10.61468      7.50033         0.005513      0.002455     -0.000247
      1.25121     12.03231      7.47528        -0.019940      0.001217      0.002109
      3.70652     10.59499      7.53883         0.003824      0.002010      0.000912
      3.70328     12.00748      7.49205         0.012962      0.010063      0.004376
      6.19320     10.60868      7.50033        -0.009049      0.011714     -0.007363
      6.18392     12.02956      7.47592         0.023292      0.009327     -0.002924
      3.71716      7.08846      8.32860         0.014439      0.003966      0.000522
    total drift:                               -0.009351      0.007389     -0.022584

  FREE ENERGIE OF THE ION-ELECTRON SYSTEM (eV)
  free  energy   TOTEN  =      -653.46355672 eV

  energy  without entropy=     -653.43049588  energy(sigma->0) =     -653.44702630

 d Force = 0.4725882E-03[ 0.752E-04, 0.870E-03]  d Energy = 0.5457274E-03-0.731E-04
 d Force =-0.3572718E-01[-0.393E-01,-0.322E-01]  d Ewald  =-0.1175263E+02 0.117E+02

 Conjugate gradient step on ions:
 trial-energy change:   -0.000546  1 .order   -0.000549   -0.001050   -0.000049
  (g-gl).g = 0.139E-02      g.g   = 0.137E-02  gl.gl    = 0.269E-02
 g(Force)  = 0.105E-02   g(Stress)= 0.320E-03 ortho     =-0.356E-04
 gamma     =   0.51843
 trial     =   0.77914
 opt step  =   0.81707  (harmonic =   0.81707) maximal distance =0.00122510
 next E    =  -653.463562   (d E  =  -0.00055)

 reached required accuracy - stopping structural energy minimisation