 vasp.5.4.4.18Apr17-6-g9f103f2a35 (build Nov  8 2022 18:58:45) complex
 executed on             LinuxGNU date 2023.04.13  14:29:52

 INCAR:
 POTCAR:    PAW_PBE C 08Apr2002
 POTCAR:    PAW_PBE N 08Apr2002
 POTCAR:    PAW_PBE Ge_d 03Jul2007
 POTCAR:    PAW_PBE C 08Apr2002
 POTCAR:    PAW_PBE O 08Apr2002
 POTCAR:    PAW_PBE C 08Apr2002
   VRHFIN =C: s2p2

   TITEL  = PAW_PBE C 08Apr2002
   POMASS =   12.011; ZVAL   =    4.000    mass and valenz
   ENMAX  =  400.000; ENMIN  =  300.000 eV

[...]

   TITEL  = PAW_PBE Ge_d 03Jul2007
   POMASS =   72.610; ZVAL   =   14.000    mass and valenz
   ENMAX  =  310.294; ENMIN  =  232.720 eV

[...]

   TITEL  = PAW_PBE O 08Apr2002
   POMASS =   16.000; ZVAL   =    6.000    mass and valenz
   ENMAX  =  400.000; ENMIN  =  300.000 eV

 Optimization of the real space projectors (new method)

 maximal supplied QI-value         = 25.13
 optimisation between [QCUT,QGAM] = [ 10.56, 21.36] = [ 31.20,127.80] Ry
 Optimized for a Real-space Cutoff    1.24 Angstroem

   l    n(q)    QCUT    max X(q) W(low)/X(q) W(high)/X(q)  e(spline)
   0      8    10.556   115.676    0.42E-03    0.71E-03    0.20E-06
   0      8    10.556    87.132    0.41E-03    0.71E-03    0.20E-06
   1      7    10.556     4.429    0.22E-03    0.39E-03    0.12E-06
   1      7    10.556     2.733    0.16E-03    0.27E-03    0.14E-06
 Optimization of the real space projectors (new method)

[...]

   l    n(q)    QCUT    max X(q) W(low)/X(q) W(high)/X(q)  e(spline)
   0      8    10.556   115.676    0.42E-03    0.71E-03    0.20E-06
   0      8    10.556    87.132    0.41E-03    0.71E-03    0.20E-06
   1      7    10.556     4.429    0.22E-03    0.39E-03    0.12E-06
   1      7    10.556     2.733    0.16E-03    0.27E-03    0.14E-06
 Optimization of the real space projectors (new method)

 maximal supplied QI-value         = 24.76
 optimisation between [QCUT,QGAM] = [ 10.64, 21.29] = [ 31.73,126.92] Ry
 Optimized for a Real-space Cutoff    1.24 Angstroem

   l    n(q)    QCUT    max X(q) W(low)/X(q) W(high)/X(q)  e(spline)
   0      8    10.645    20.381    0.39E-03    0.65E-03    0.15E-06
   0      8    10.645    15.268    0.42E-03    0.70E-03    0.17E-06
   1      7    10.645     5.964    0.38E-03    0.66E-03    0.17E-06
   1      7    10.645     5.382    0.31E-03    0.55E-03    0.16E-06
  PAW_PBE C 08Apr2002                   :
  PAW_PBE N 08Apr2002                   :
  PAW_PBE Ge_d 03Jul2007                :
  PAW_PBE C 08Apr2002                   :
  PAW_PBE O 08Apr2002                   :

 POSCAR: POSCAR-c3n4
  positions in direct lattice
  velocities in cartesian coordinates
 exchange correlation table for  LEXCH =        8
   RHO(1)=    0.500       N(1)  =     2000
   RHO(2)=  100.500       N(2)  =     4000

 ion  position               nearest neighbor table
   1  0.048  0.118  0.474-  26 1.35  46 1.36  25 1.36
   2  0.274  0.513  0.487-  29 1.31  35 1.37   3 1.50
   3  0.182  0.507  0.488-  44 1.31  39 1.37   2 1.50
   4  0.557  0.077  0.479-  30 1.30  27 1.38  48 1.41
   5  0.371  0.458  0.456-  28 1.33  29 1.35  56 1.41
   6  0.043  0.978  0.500-  31 1.32  26 1.35  32 1.41
   7  0.047  0.694  0.518-  33 1.32  54 1.36  34 1.41
   8  0.409  0.949  0.464-  27 1.28  37 1.33
   9  0.023  0.829  0.521-  33 1.34  52 1.37  31 1.37
  10  0.436  0.616  0.513-  38 1.31  35 1.37  56 1.39
  11  0.519  0.911  0.477-  36 1.32  37 1.36  48 1.39
  12  0.116  0.603  0.510-  34 1.29  39 1.38  40 1.38
  13  0.713  0.197  0.498-  41 1.31  42 1.39  30 1.40
  14  0.859  0.364  0.484-  41 1.32  51 1.37  45 1.41
  15  0.477  0.418  0.428-  55 1.30  28 1.32
  16  0.902  0.984  0.475-  46 1.33  43 1.34  32 1.40
  17  0.020  0.433  0.477-  45 1.30  44 1.39  40 1.41
  18  0.673  0.040  0.521-  42 1.32  47 1.36  48 1.43
  19  0.594  0.720  0.512-  50 1.34  38 1.37  49 1.38
  20  0.763  0.852  0.504-  53 1.32  43 1.33  49 1.45
  21  0.634  0.885  0.512-  47 1.32  36 1.34  49 1.44
  22  0.949  0.531  0.496-  51 1.32  54 1.33  40 1.43
  23  0.889  0.836  0.521-  52 1.32  53 1.36  32 1.41
  24  0.543  0.569  0.469-  50 1.32  55 1.35  56 1.42
  25  0.103  0.216  0.471-   1 1.36
  26  0.096  0.074  0.490-   1 1.35   6 1.35
  27  0.462  0.041  0.466-   8 1.28   4 1.38
  28  0.387  0.392  0.429-  15 1.32   5 1.33
  29  0.283  0.443  0.461-   2 1.31   5 1.35
  30  0.620  0.168  0.481-   4 1.30  13 1.40
  31  0.082  0.926  0.511-   6 1.32   9 1.37
  32  0.944  0.933  0.499-  16 1.40  23 1.41   6 1.41
  33  0.073  0.785  0.522-   7 1.32   9 1.34
  34  0.127  0.685  0.527-  12 1.29   7 1.41
  35  0.346  0.599  0.514-  10 1.37   2 1.37  57 2.12
  36  0.551  0.852  0.477-  11 1.32  21 1.34
  37  0.427  0.879  0.466-   8 1.33  11 1.36
  38  0.508  0.695  0.540-  10 1.31  19 1.37
  39  0.194  0.594  0.509-   3 1.37  12 1.38  57 2.00
  40  0.030  0.522  0.494-  12 1.38  17 1.41  22 1.43
  41  0.773  0.289  0.490-  13 1.31  14 1.32
  42  0.736  0.133  0.527-  18 1.32  13 1.39
  43  0.807  0.936  0.469-  20 1.33  16 1.34
  44  0.102  0.429  0.471-   3 1.31  17 1.39
  45  0.937  0.356  0.468-  17 1.30  14 1.41
  46  0.954  0.078  0.461-  16 1.33   1 1.36
  47  0.691  0.971  0.541-  21 1.32  18 1.36
  48  0.582  0.008  0.491-  11 1.39   4 1.41  18 1.43
  49  0.663  0.816  0.515-  19 1.38  21 1.44  20 1.45
  50  0.614  0.658  0.481-  24 1.32  19 1.34
  51  0.865  0.451  0.491-  22 1.32  14 1.37
  52  0.928  0.785  0.532-  23 1.32   9 1.37
  53  0.795  0.800  0.533-  20 1.32  23 1.36
  54  0.961  0.617  0.503-  22 1.33   7 1.36
  55  0.554  0.497  0.445-  15 1.30  24 1.35
  56  0.449  0.547  0.478-  10 1.39   5 1.41  24 1.42
  57  0.316  0.705  0.546-  39 2.00  35 2.12
  58  0.260  0.584  0.679-  59 1.14
  59  0.251  0.557  0.738-  58 1.14

IMPORTANT INFORMATION: All symmetrisations will be switched off!
NOSYMM: (Re-)initialisation of all symmetry stuff for point group C_1.

 KPOINTS: K-Points

Automatic generation of k-mesh.
Space group operators:
 irot       det(A)        alpha          n_x          n_y          n_z        tau_x        tau_y        tau_z
    1     1.000000     0.000000     1.000000     0.000000     0.000000     0.000000     0.000000     0.000000

 Subroutine IBZKPT returns following result:

 Found      4 irreducible k-points:

 Following reciprocal coordinates:
            Coordinates               Weight
  0.000000  0.000000  0.000000      1.000000
  0.500000  0.000000  0.000000      1.000000
  0.000000  0.500000  0.000000      1.000000
  0.500000  0.500000  0.000000      1.000000

 Following cartesian coordinates:
            Coordinates               Weight
  0.000000  0.000000  0.000000      1.000000
  0.036415  0.021552  0.000000      1.000000
  0.000594  0.043104  0.000000      1.000000
  0.037009  0.064656  0.000000      1.000000

 SYSTEM =  unknown system
 POSCAR =  POSCAR-c3n4

 Startparameter for this run:
   NWRITE =      2    write-flag & timer
   PREC   = normal    normal or accurate (medium, high low for compatibility)
   ISTART =      0    job   : 0-new  1-cont  2-samecut
   ICHARG =      2    charge: 1-file 2-atom 10-const
   ISPIN  =      2    spin polarized calculation?
   LNONCOLLINEAR =      F non collinear calculations
   LSORBIT =      F    spin-orbit coupling
   INIWAV =      1    electr: 0-lowe 1-rand  2-diag
   LASPH  =      F    aspherical Exc in radial PAW
   METAGGA=      F    non-selfconsistent MetaGGA calc.

 Electronic Relaxation 1
   ENCUT  =  440.0 eV  32.34 Ry    5.69 a.u.  28.42 27.89 30.79*2*pi/ulx,y,z
   ENINI  =  440.0     initial cutoff
   ENAUG  =  644.9 eV  augmentation charge cutoff
   NELM   =     50;   NELMIN=  2; NELMDL= -5     # of ELM steps
   EDIFF  = 0.1E-03   stopping-criterion for ELM
   LREAL  =      T    real-space projection
   NLSPLINE    = F    spline interpolate recip. space projectors
   LCOMPAT=      F    compatible to vasp.4.4
   GGA_COMPAT  = T    GGA compatible to vasp.4.4-vasp.4.6
   LMAXPAW     = -100 max onsite density
   LMAXMIX     =    2 max onsite mixed and CHGCAR
   VOSKOWN=      0    Vosko Wilk Nusair interpolation
   ROPT   =   -0.00050  -0.00050  -0.00050  -0.00050
   ROPT   =   -0.00050
 Ionic relaxation
   EDIFFG = -.1E+00   stopping-criterion for IOM
   NSW    =    400    number of steps for IOM
   NBLOCK =      1;   KBLOCK =    400    inner block; outer block
   IBRION =      2    ionic relax: 0-MD 1-quasi-New 2-CG
   NFREE  =      1    steps in history (QN), initial steepest desc. (CG)
   ISIF   =      2    stress and relaxation
   IWAVPR =     11    prediction:  0-non 1-charg 2-wave 3-comb
   ISYM   =      0    0-nonsym 1-usesym 2-fastsym
   LCORR  =      T    Harris-Foulkes like correction to forces

   POTIM  = 0.2000    time-step for ionic-motion
   TEIN   =    0.0    initial temperature
   TEBEG  =    0.0;   TEEND  =   0.0 temperature during run
   SMASS  =  -3.00    Nose mass-parameter (am)
   estimated Nose-frequenzy (Omega)   =  0.10E-29 period in steps =****** mass=  -0.631E-26a.u.
   SCALEE = 1.0000    scale energy and forces
   NPACO  =    256;   APACO  = 16.0  distance and # of slots for P.C.
   PSTRESS=    0.0 pullay stress

  Mass of Ions in am
   POMASS =  12.01 14.00 72.61 12.01 16.00
  Ionic Valenz
   ZVAL   =   4.00  5.00 14.00  4.00  6.00
  Atomic Wigner-Seitz radii
  virtual crystal weights
   VCA    =   1.00  1.00  1.00  1.00  1.00
   NELECT =     280.0000    total number of electrons
   NUPDOWN=      -1.0000    fix difference up-down

 DOS related values:
   EMIN   =  10.00;   EMAX   =-10.00  energy-range for DOS
   EFERMI =   0.00
   ISMEAR =     0;   SIGMA  =   0.10  broadening in eV -4-tet -1-fermi 0-gaus

 Electronic relaxation 2 (details)
   IALGO  =     58    algorithm
   LDIAG  =      T    sub-space diagonalisation (order eigenvalues)
   LSUBROT=      F    optimize rotation matrix (better conditioning)
   TURBO    =      0    0=normal 1=particle mesh
   IRESTART =      0    0=no restart 2=restart with 2 vectors
   NREBOOT  =      0    no. of reboots
   NMIN     =      0    reboot dimension
   EREF     =   0.00    reference energy to select bands
   IMIX   =      4    mixing-type and parameters
     AMIX     =   0.05;   BMIX     =  0.00
     AMIX_MAG =   0.20;   BMIX_MAG =  0.00
     AMIN     =   0.05
     WC   =   100.;   INIMIX=   1;  MIXPRE=   1;  MAXMIX= -45

 Intra band minimization:
   WEIMIN = 0.0010     energy-eigenvalue tresh-hold
   EBREAK =  0.15E-06  absolut break condition
   DEPER  =   0.30     relativ break condition

   TIME   =   0.40     timestep for ELM

  volume/ion in A,a.u.               =      70.55       476.07
  Fermi-wavevector in a.u.,A,eV,Ry     =   0.665811  1.258200  6.031519  0.443304
  Thomas-Fermi vector in A             =   1.739920

 Write flags
   LWAVE        =      F    write WAVECAR
   LDOWNSAMPLE  =      F    k-point downsampling of WAVECAR
   LCHARG       =      F    write CHGCAR
   LVTOT        =      F    write LOCPOT, total local potential
   LVHAR        =      F    write LOCPOT, Hartree potential only
   LELF         =      F    write electronic localiz. function (ELF)
   LORBIT       =      0    0 simple, 1 ext, 2 COOP (PROOUT), +10 PAW based schemes

 Dipole corrections
   LMONO  =      F    monopole corrections only (constant potential shift)
[...]

 E-fermi :  -4.3881     XC(G=0):  -2.0266     alpha+bet : -1.3446

[...]

 spin component 2

[...]

 k-point     4 :       0.5000    0.5000    0.0000
  band No.  band energies     occupation
      1     -29.9014      1.00000
      2     -29.8850      1.00000
      3     -29.8034      1.00000
      4     -29.7934      1.00000
      5     -29.7550      1.00000
      6     -29.5146      1.00000
      7     -27.8956      1.00000
      8     -26.8143      1.00000
      9     -26.7688      1.00000
     10     -26.3592      1.00000
     11     -26.0651      1.00000
     12     -25.7625      1.00000
     13     -25.2164      1.00000
     14     -24.8132      1.00000
     15     -24.5998      1.00000
     16     -24.4901      1.00000
     17     -24.4792      1.00000
     18     -24.2145      1.00000
     19     -23.9942      1.00000
     20     -23.6781      1.00000
     21     -23.5847      1.00000
     22     -23.3012      1.00000
     23     -23.2180      1.00000
     24     -22.9322      1.00000
     25     -22.6011      1.00000
     26     -22.5786      1.00000
     27     -22.4852      1.00000
     28     -22.3459      1.00000
     29     -22.2884      1.00000
     30     -22.2251      1.00000
     31     -22.0863      1.00000
     32     -21.8109      1.00000
     33     -21.2247      1.00000
     34     -21.0253      1.00000
     35     -20.9122      1.00000
     36     -20.6727      1.00000
     37     -20.5969      1.00000
     38     -20.4011      1.00000
     39     -19.2892      1.00000
     40     -18.5013      1.00000
     41     -18.0467      1.00000
     42     -17.9228      1.00000
     43     -17.7091      1.00000
     44     -17.4097      1.00000
     45     -17.1074      1.00000
     46     -16.8930      1.00000
     47     -16.5716      1.00000
     48     -16.2858      1.00000
     49     -16.0278      1.00000
     50     -15.7761      1.00000
     51     -15.6471      1.00000
     52     -15.4926      1.00000
     53     -15.2684      1.00000
     54     -15.0956      1.00000
     55     -14.8958      1.00000
     56     -14.7206      1.00000
     57     -14.5943      1.00000
     58     -14.3906      1.00000
     59     -14.2195      1.00000
     60     -14.2058      1.00000
[...]
    158      -0.5497      0.00000
    159      -0.1625      0.00000
    160      -0.1403      0.00000
    161       0.0081      0.00000
    162       0.3334      0.00000
    163       0.4191      0.00000
    164       0.5834      0.00000
    165       0.7483      0.00000
    166       0.8494      0.00000
    167       1.0618      0.00000
    168       1.1198      0.00000
    169       1.1756      0.00000
    170       1.2838      0.00000
    171       1.4022      0.00000
    172       1.5309      0.00000

[...]

 soft charge-density along one line, spin component           2
         0         1         2         3         4         5         6         7         8         9
 total charge-density along one line

------------------------ aborting loop because EDIFF is reached ----------------------------------------

         DFTD3 V3.0 Rev 1
 Edisp (eV)   -3.51947

 E6    (eV) :    -2.4517
 E8    (eV) :    -1.0678
 % E8        : 30.34

  FORCE on cell =-STRESS in cart. coord.  units (eV):
  Direction    XX          YY          ZZ          XY          YZ          ZX
  Alpha Z    89.52339    89.52339    89.52339
  Ewald   34730.65947 34857.51917-37985.23180  1904.66579  1279.20793   253.64465
  Hartree 36511.10920 36242.50831-28818.47419  1657.36455   815.86572    32.91283
  E(xc)   -1167.07621 -1165.00263 -1192.57765     0.68350     1.99046     1.29570
  Local  -74625.08709-74408.80811 63011.73049 -3549.86016 -2062.23489  -266.77771
  n-local  -481.25292  -482.32095  -459.50829     0.74971     1.74635    -3.71671
  augment   152.31352   152.02351   153.35408    -0.04625     0.26787     0.09170
  Kinetic  4781.16924  4702.92830  5194.46815   -18.49698   -36.60597   -17.44177
  Fock        0.00000     0.00000     0.00000     0.00000     0.00000     0.00000
  vdW        -1.11368    -1.28268    -0.24148    -0.10769     0.06121     0.05617
  Total      -9.75506   -12.91167    -6.95730    -5.04754     0.29869     0.06486
  in kB      -3.75501    -4.97008    -2.67807    -1.94294     0.11498     0.02496

 VOLUME and BASIS-vectors are now :
  energy-cutoff  :      440.00
  volume of cell :     4162.27
      direct lattice vectors                 reciprocal lattice vectors
    16.612109082 -0.228888569  0.000000000     0.060691974  0.035920095 -0.000000000
    -8.306054541 14.034229193  0.000000000     0.000989844  0.071840191 -0.000000000
     0.000000000  0.000000000 18.000000000    -0.000000000 -0.000000000  0.055555556

  length of vectors
    16.613685868 16.307977528 18.000000000     0.070524953  0.071847009  0.055555556

 FORCES acting on ions:
    Electron-Ion                     Ewald-Force                    Non-Local-Force
   -.542E+02 -.114E+03 0.550E+02   0.538E+02 0.115E+03 -.549E+02   0.333E+00 -.261E+00 -.139E+00
   0.304E+02 0.132E+03 0.537E+02   -.338E+02 -.134E+03 -.544E+02   0.345E+01 0.177E+01 0.761E+00
   -.411E+02 0.114E+03 0.704E+02   0.428E+02 -.116E+03 -.711E+02   -.169E+01 0.192E+01 0.717E+00
   0.152E+03 -.110E+03 0.519E+02   -.154E+03 0.113E+03 -.523E+02   0.139E+01 -.316E+01 0.311E+00
   -.328E+02 0.164E+03 0.973E+02   0.317E+02 -.167E+03 -.985E+02   0.112E+01 0.304E+01 0.114E+01
   -.125E+03 -.817E+02 -.132E+01   0.129E+03 0.824E+02 0.150E+01   -.314E+01 -.736E+00 -.194E+00
   0.571E+02 -.568E+02 -.360E+02   -.590E+02 0.566E+02 0.362E+02   0.201E+01 0.229E+00 -.161E+00
   0.300E+03 -.138E+02 0.105E+03   -.307E+03 0.117E+02 -.105E+03   0.706E+01 0.212E+01 0.168E-01
   -.573E+02 -.368E+01 -.396E+02   0.564E+02 0.310E+01 0.382E+02   0.856E+00 0.638E+00 0.137E+01
   -.362E+02 0.532E+02 -.656E+02   0.363E+02 -.507E+02 0.669E+02   -.115E+00 -.260E+01 -.131E+01
   0.738E+02 -.184E+02 0.980E+02   -.741E+02 0.157E+02 -.981E+02   0.382E+00 0.277E+01 0.772E-01
   0.504E+02 -.274E+02 -.703E+01   -.520E+02 0.305E+02 0.782E+01   0.167E+01 -.312E+01 -.790E+00
   0.402E+02 -.804E+02 -.108E+02   -.394E+02 0.782E+02 0.955E+01   -.892E+00 0.217E+01 0.121E+01
   0.723E+02 0.436E+02 0.346E+02   -.707E+02 -.421E+02 -.332E+02   -.152E+01 -.147E+01 -.137E+01
   -.201E+03 0.256E+03 0.166E+03   0.206E+03 -.262E+03 -.168E+03   -.481E+01 0.611E+01 0.188E+01
   0.256E+01 -.707E+02 0.942E+02   -.469E+01 0.728E+02 -.951E+02   0.219E+01 -.213E+01 0.866E+00
   -.106E+02 0.102E+03 0.798E+02   0.105E+02 -.105E+03 -.808E+02   0.160E+00 0.293E+01 0.101E+01
   -.317E+02 -.858E+02 -.970E+02   0.340E+02 0.876E+02 0.981E+02   -.237E+01 -.185E+01 -.119E+01
   -.905E+02 0.347E+02 -.661E+02   0.900E+02 -.365E+02 0.651E+02   0.423E+00 0.169E+01 0.103E+01
   -.272E+02 0.341E+02 -.618E+01   0.314E+02 -.324E+02 0.587E+01   -.424E+01 -.169E+01 0.316E+00
   -.297E+02 -.215E+02 -.481E+02   0.275E+02 0.243E+02 0.477E+02   0.214E+01 -.285E+01 0.342E+00
   0.144E+03 0.795E+01 0.187E+02   -.148E+03 -.763E+01 -.184E+02   0.350E+01 -.311E+00 -.191E+00
   -.316E+02 0.850E+02 -.698E+02   0.322E+02 -.880E+02 0.706E+02   -.620E+00 0.306E+01 -.842E+00
   -.158E+03 0.865E+02 0.634E+02   0.161E+03 -.860E+02 -.632E+02   -.342E+01 -.502E+00 -.143E+00
   -.693E+02 -.170E+03 0.558E+02   0.717E+02 0.202E+03 -.567E+02   -.238E+01 -.320E+02 0.869E+00
   -.293E+03 -.180E+03 -.676E+01   0.324E+03 0.198E+03 0.100E+02   -.309E+02 -.176E+02 -.325E+01
   0.336E+03 -.216E+03 0.102E+03   -.360E+03 0.239E+03 -.106E+03   0.238E+02 -.232E+02 0.367E+01
   -.538E+02 0.355E+03 0.223E+03   0.418E+02 -.387E+03 -.235E+03   0.120E+02 0.320E+02 0.120E+02
   0.330E+02 0.316E+03 0.166E+03   -.481E+02 -.349E+03 -.178E+03   0.151E+02 0.332E+02 0.117E+02
   0.251E+03 -.249E+03 0.775E+02   -.273E+03 0.277E+03 -.834E+02   0.215E+02 -.281E+02 0.583E+01
   -.290E+03 -.152E+03 -.284E+02   0.324E+03 0.163E+03 0.299E+02   -.343E+02 -.119E+02 -.141E+01
   -.658E+02 -.270E+02 0.663E+01   0.657E+02 0.269E+02 -.670E+01   0.475E-01 0.573E-01 0.569E-01
   -.105E+03 -.154E+03 -.606E+02   0.128E+03 0.173E+03 0.633E+02   -.233E+02 -.198E+02 -.269E+01
   0.136E+02 -.247E+03 -.127E+03   -.604E+00 0.277E+03 0.136E+03   -.130E+02 -.295E+02 -.970E+01
   -.195E+02 0.329E+02 -.577E+02   0.577E+01 -.194E+02 0.651E+02   0.137E+02 -.135E+02 -.738E+01
   0.348E+02 0.948E+02 0.218E+03   -.359E+02 -.127E+03 -.232E+03   0.111E+01 0.318E+02 0.137E+02
   0.199E+03 0.741E+02 0.183E+03   -.206E+03 -.104E+03 -.188E+03   0.631E+01 0.296E+02 0.438E+01
   -.339E+01 -.465E+02 -.306E+03   -.126E+02 0.705E+02 0.327E+03   0.161E+02 -.239E+02 -.213E+02
   0.511E+02 -.944E+01 0.308E+02   -.411E+02 0.226E+02 -.279E+02   -.100E+02 -.131E+02 -.283E+01
   0.818E+02 0.388E+02 0.434E+02   -.848E+02 -.407E+02 -.444E+02   0.298E+01 0.197E+01 0.953E+00
   0.160E+03 -.619E+02 0.187E+02   -.179E+03 0.702E+02 -.201E+02   0.184E+02 -.827E+01 0.142E+01
   -.162E+03 -.156E+03 -.189E+03   0.192E+03 0.170E+03 0.202E+03   -.301E+02 -.137E+02 -.130E+02
   0.764E+02 -.121E+03 0.251E+03   -.105E+03 0.136E+03 -.267E+03   0.283E+02 -.152E+02 0.166E+02
   -.688E+02 0.283E+03 0.155E+03   0.830E+02 -.315E+03 -.165E+03   -.142E+02 0.328E+02 0.103E+02
   -.370E+02 0.243E+03 0.150E+03   0.471E+02 -.277E+03 -.160E+03   -.101E+02 0.333E+02 0.917E+01
   0.120E+03 -.202E+03 0.180E+03   -.148E+03 0.224E+03 -.191E+03   0.276E+02 -.211E+02 0.112E+02
   -.142E+03 -.142E+03 -.301E+03   0.171E+03 0.151E+03 0.321E+03   -.290E+02 -.882E+01 -.202E+02
   0.684E+02 -.958E+02 0.264E+02   -.674E+02 0.976E+02 -.266E+02   -.990E+00 -.173E+01 0.218E+00
   -.773E+02 0.759E+01 -.925E+02   0.799E+02 -.455E+01 0.964E+02   -.264E+01 -.302E+01 -.385E+01
   -.305E+03 0.600E+02 0.109E+03   0.339E+03 -.501E+02 -.119E+03   -.341E+02 -.999E+01 0.967E+01
   0.334E+03 0.137E+02 0.117E+02   -.370E+03 -.142E+02 -.108E+02   0.360E+02 0.478E+00 -.867E+00
   -.893E+01 0.239E+03 -.147E+03   0.890E+01 -.273E+03 0.157E+03   0.392E-01 0.347E+02 -.950E+01
   -.625E+02 0.235E+03 -.220E+03   0.584E+02 -.266E+03 0.238E+03   0.418E+01 0.312E+02 -.176E+02
   0.296E+03 -.114E+02 0.257E+02   -.331E+03 0.171E+02 -.275E+02   0.351E+02 -.569E+01 0.191E+01
   -.348E+03 0.128E+03 0.137E+03   0.384E+03 -.123E+03 -.140E+03   -.353E+02 -.473E+01 0.264E+01
   -.913E+02 0.121E+03 0.558E+02   0.926E+02 -.122E+03 -.572E+02   -.129E+01 0.126E+01 0.142E+01
   0.158E+03 -.485E+03 -.474E+03   -.157E+03 0.507E+03 0.490E+03   -.306E+00 -.223E+02 -.154E+02
   0.197E+02 -.219E+02 -.134E+03   -.218E+02 0.308E+02 0.109E+03   0.203E+01 -.884E+01 0.248E+02
   -.192E+02 0.124E+03 -.584E+03   0.239E+02 -.145E+03 0.641E+03   -.469E+01 0.210E+02 -.576E+02
   0.834E+01 0.451E+02 0.394E+02   0.391E-12 -.483E-12 -.455E-12   -.831E+01 -.452E+02 -.394E+02

 POSITION                                       TOTAL-FORCE (eV/Angst)
     -0.17883      1.64442      8.52774        -0.013219     -0.028400     -0.035320
      0.29749      7.13728      8.76520         0.022459      0.001559     -0.011912
     -1.19772      7.07985      8.78291         0.007066     -0.011223     -0.002953
      8.60887      0.96006      8.62070        -0.010926      0.003018     -0.029401
      2.35433      6.34348      8.19788        -0.030548     -0.008765     -0.025968
     -7.41223     13.71369      8.99893        -0.023087      0.011145     -0.008176
     -4.98127      9.73450      9.32383         0.015577      0.048062      0.024535
     -1.09384     13.23219      8.35075         0.003743      0.038561     -0.034180
     -6.50061     11.63197      9.37542        -0.011554      0.029992      0.026543
      2.12822      8.54571      9.23365        -0.009878     -0.030106     -0.014132
      1.05717     12.66741      8.59417        -0.001161      0.002182      0.005038
     -3.08433      8.43558      9.18888         0.016763      0.000959      0.008321
     10.21397      2.59813      8.96831        -0.024655      0.005140     -0.015511
     11.23983      4.91122      8.71200         0.029157      0.037404      0.023537
      4.45116      5.75144      7.71165         0.012493      0.047159      0.017860
      6.80151     13.60780      8.54403         0.021554     -0.049513     -0.018249
     -3.25673      6.06360      8.58015         0.044695     -0.018187      0.015324
     10.84922      0.41286      9.37723        -0.020226      0.011668     -0.009096
      3.89450      9.96097      9.22343        -0.023227      0.008214      0.006932
      5.59095     11.78471      9.07928         0.019156     -0.030049      0.015188
      3.18459     12.27663      9.21637        -0.016330     -0.020668     -0.004709
     11.35594      7.22863      8.92773         0.029814      0.002012      0.039017
      7.81732     11.53430      9.38859        -0.002121      0.007975      0.017340
      4.29045      7.86496      8.43883         0.001083      0.005688     -0.005094
     -0.08855      3.00419      8.47863        -0.015249     -0.017495     -0.018865
      0.97385      1.01612      8.82658        -0.001646      0.021214     -0.003380
      7.34115      0.47240      8.39368        -0.031225      0.041255     -0.046454
      3.17278      5.41591      7.71359         0.032903     -0.021656     -0.013255
      1.02185      6.14995      8.29214        -0.009004      0.029438     -0.043309
      8.91095      2.22053      8.65055        -0.039107      0.033759     -0.046387
     -6.34149     12.98449      9.19918         0.059080      0.014394      0.009430
      7.92643     12.87924      8.97479        -0.023075     -0.008464     -0.007204
     -5.32052     11.00616      9.40686         0.072800     -0.058084      0.021224
     -3.58344      9.58583      9.49085        -0.035186      0.005842     -0.023519
      0.78190      8.32703      9.25775        -0.014122     -0.036312      0.017527
      2.07976     11.83097      8.58980        -0.008655      0.021928      0.037816
     -0.21307     12.23671      8.38291        -0.035464      0.036545     -0.014470
      2.65541      9.64245      9.71099         0.006902      0.050353      0.021140
     -1.71421      8.29481      9.15468         0.027531      0.029818      0.034078
     -3.83063      7.31646      8.88536        -0.028615     -0.012212      0.021380
     10.43304      3.87955      8.81776        -0.064074     -0.020226     -0.000246
     11.12553      1.69336      9.48234         0.014999      0.030881      0.015676
      5.63740     12.94928      8.43465         0.009552     -0.040157     -0.009186
     -1.87288      6.00254      8.48277        -0.013365     -0.030571     -0.019613
     12.61179      4.77442      8.42814        -0.000237     -0.045112      0.016877
     15.20664      0.87014      8.29123         0.011279     -0.040945     -0.064647
      3.41390     13.46410      9.73877         0.006059      0.005618     -0.009817
      9.59961     -0.02078      8.84369        -0.024803      0.035453     -0.013930
      4.23789     11.29899      9.27218        -0.006109      0.020685      0.011578
      4.73373      9.09032      8.65631         0.011925      0.000722     -0.005140
     10.62788      6.12585      8.84378         0.007941     -0.005914      0.059660
      8.89838     10.80285      9.58289         0.003551     -0.014025      0.036406
      6.56294     11.05222      9.59262         0.042790     -0.024620      0.035768
     10.82659      8.44515      9.06039         0.011326     -0.010198      0.037817
      5.07302      6.85471      8.00596         0.017843     -0.059639     -0.039813
      2.91031      7.57648      8.60828        -0.017078     -0.030030     -0.023067
     -0.60808      9.82038      9.82287         0.001995     -0.007544      0.028505
     -0.53471      8.14322     12.21545         0.002265      0.022675      0.052650
     -0.44651      7.75463     13.28394        -0.010356      0.018800     -0.040164
    total drift:                                0.030409     -0.014631     -0.013287

  FREE ENERGIE OF THE ION-ELECTRON SYSTEM (eV)
  free  energy   TOTEN  =      -489.08617111 eV

  energy  without entropy=     -489.08103757  energy(sigma->0) =     -489.08360434

 d Force = 0.2794087E-02[ 0.130E-02, 0.429E-02]  d Energy = 0.2732967E-02 0.611E-04
 d Force = 0.6146564E+01[ 0.615E+01, 0.615E+01]  d Ewald  = 0.6146563E+01 0.690E-06

 Conjugate gradient step on ions:
 trial-energy change:   -0.002733  1 .order   -0.002794   -0.004287   -0.001301
  (g-gl).g = 0.428E-02      g.g   = 0.504E-02  gl.gl    = 0.769E-02
 g(Force)  = 0.504E-02   g(Stress)= 0.000E+00 ortho     = 0.650E-04
 gamma     =   0.55596
 trial     =   0.84452
 opt step  =   1.21254  (harmonic =   1.21254) maximal distance =0.00243023
 next E    =  -489.086516   (d E  =  -0.00308)

 reached required accuracy - stopping structural energy minimisation