 vasp.5.4.4.18Apr17-6-g9f103f2a35 (build Jan 14 2022 15:04:31) complex

 executed on             LinuxIFC date 2023.04.05  11:31:10

 INCAR:
 POTCAR:    PAW_PBE C 08Apr2002
 POTCAR:    PAW_PBE N 08Apr2002
 POTCAR:    PAW_PBE Ge_d 03Jul2007
 POTCAR:    PAW_PBE C 08Apr2002
   VRHFIN =C: s2p2

   TITEL  = PAW_PBE C 08Apr2002
   POMASS =   12.011; ZVAL   =    4.000    mass and valenz
   ENMAX  =  400.000; ENMIN  =  300.000 eV

   TITEL  = PAW_PBE N 08Apr2002
   POMASS =   14.001; ZVAL   =    5.000    mass and valenz
   ENMAX  =  400.000; ENMIN  =  300.000 eV

   TITEL  = PAW_PBE Ge_d 03Jul2007
   POMASS =   72.610; ZVAL   =   14.000    mass and valenz
   ENMAX  =  310.294; ENMIN  =  232.720 eV

  PAW_PBE C 08Apr2002                   :
  PAW_PBE N 08Apr2002                   :
  PAW_PBE Ge_d 03Jul2007                :

 POSCAR: POSCAR-c3n4
  positions in cartesian coordinates
 exchange correlation table for  LEXCH =        8
   RHO(1)=    0.500       N(1)  =     2000
   RHO(2)=  100.500       N(2)  =     4000

 VTST: version 3.2, (02/03/18)

 CHAIN: initializing optimizer

 OPT: Using VASP Dynamics algorithm
 CHAIN: Read ICHAIN            0

 POSCAR: POSCAR-c3n4
  positions in cartesian coordinates

 ion  position               nearest neighbor table
   1  0.106  0.214  0.426-  26 1.07  46 1.07  25 1.13   6 1.81  16 1.81   3 1.95   2 1.97
   2  0.288  0.399  0.433-  29 1.06  35 1.11  25 1.15   5 1.83  10 1.86   1 1.97   3 2.00
   3  0.104  0.392  0.427-  44 1.05  39 1.10  25 1.14  17 1.82  12 1.85   1 1.95   2 2.00
   4  0.447  0.064  0.506-  30 1.06  27 1.07  48 1.13  13 1.81   8 1.81  18 1.94  11 1.94
   5  0.453  0.401  0.413-  28 1.06  29 1.07  56 1.14  15 1.81   2 1.83  10 1.95  24 1.97
   6  0.112  0.053  0.449-  26 1.06  31 1.07  32 1.12   9 1.80   1 1.81  16 1.91  23 1.95
   7  0.096  0.712  0.484-  54 1.06  34 1.09  33 1.12  12 1.79  22 1.82   9 1.93   8 1.98
   8  0.284  0.890  0.501-  27 1.07  37 1.08  33 1.13   4 1.81  11 1.82   9 1.97   7 1.98
   9  0.109  0.895  0.498-  31 1.06  52 1.08  33 1.15   6 1.80  23 1.81   7 1.93   8 1.97
  10  0.448  0.548  0.502-  38 1.06  56 1.08  35 1.09  19 1.80   2 1.86  24 1.89   5 1.95  57 2.18

  11  0.445  0.885  0.489-  37 1.07  36 1.07  48 1.11  21 1.82   8 1.82  18 1.94   4 1.94
  12  0.087  0.542  0.481-  34 1.06  40 1.08  39 1.09   7 1.79   3 1.85  22 1.91  17 1.93  57 2.19

  13  0.616  0.223  0.473-  42 1.08  30 1.08  41 1.12   4 1.81  18 1.81  15 1.95  14 1.98
  14  0.780  0.390  0.400-  45 1.08  51 1.09  41 1.12  17 1.80  22 1.80  15 1.96  13 1.98
  15  0.610  0.394  0.435-  28 1.07  55 1.07  41 1.16  24 1.81   5 1.81  13 1.95  14 1.96
  16  0.940  0.052  0.461-  46 1.05  43 1.07  32 1.12  20 1.80   1 1.81   6 1.91  23 1.94
  17  0.941  0.387  0.394-  45 1.06  44 1.07  40 1.14  14 1.80   3 1.82  12 1.93  22 1.96
  18  0.623  0.066  0.512-  42 1.06  47 1.07  48 1.13  13 1.81  21 1.81   4 1.94  11 1.94
  19  0.613  0.711  0.531-  50 1.06  38 1.09  49 1.13  10 1.80  24 1.82  20 1.95  21 2.00
  20  0.790  0.897  0.523-  43 1.06  53 1.07  49 1.16  16 1.80  23 1.80  19 1.95  21 1.97
  21  0.609  0.892  0.521-  47 1.07  36 1.08  49 1.15  18 1.81  11 1.82  20 1.97  19 2.00
  22  0.938  0.563  0.421-  51 1.05  54 1.08  40 1.14  14 1.80   7 1.82  12 1.91  17 1.96
  23  0.954  0.902  0.535-  52 1.07  53 1.07  32 1.12  20 1.80   9 1.81  16 1.94   6 1.95
  24  0.621  0.555  0.490-  55 1.05  50 1.06  56 1.13  15 1.81  19 1.82  10 1.89   5 1.97
  25  0.167  0.335  0.425-   1 1.13   3 1.14   2 1.15
  26  0.165  0.161  0.421-   6 1.06   1 1.07
  27  0.336  0.002  0.522-   8 1.07   4 1.07
  28  0.512  0.352  0.392-   5 1.06  15 1.07
  29  0.345  0.361  0.390-   2 1.06   5 1.07
  30  0.506  0.177  0.493-   4 1.06  13 1.08
  31  0.159  0.988  0.447-   9 1.06   6 1.07
  32  0.002  0.002  0.483-  16 1.12  23 1.12   6 1.12
  33  0.165  0.831  0.500-   7 1.12   8 1.13   9 1.15
  34  0.134  0.645  0.518-  12 1.06   7 1.09  57 2.10
  35  0.334  0.491  0.492-  10 1.09   2 1.11  57 1.65
  36  0.503  0.831  0.490-  11 1.07  21 1.08
  37  0.333  0.829  0.479-  11 1.07   8 1.08
  38  0.499  0.648  0.545-  10 1.06  19 1.09  57 2.11
  39  0.142  0.484  0.485-  12 1.09   3 1.10  57 1.66
  40  0.988  0.496  0.436-  12 1.08  22 1.14  17 1.14
  41  0.667  0.330  0.429-  13 1.12  14 1.12  15 1.16
  42  0.680  0.178  0.495-  18 1.06  13 1.08
  43  0.827  0.986  0.468-  20 1.06  16 1.07
  44  0.011  0.348  0.379-   3 1.05  17 1.07
  45  0.830  0.330  0.380-  17 1.06  14 1.08
  46  0.993  0.161  0.435-  16 1.05   1 1.07
  47  0.669  0.005  0.539-  21 1.07  18 1.07
  48  0.505  0.004  0.498-  11 1.11  18 1.13   4 1.13
  49  0.668  0.832  0.534-  19 1.13  21 1.15  20 1.16
  50  0.675  0.666  0.512-  19 1.06  24 1.06
  51  0.832  0.507  0.396-  22 1.05  14 1.09
  52  0.016  0.853  0.549-  23 1.07   9 1.08
  53  0.849  0.860  0.566-  20 1.07  23 1.07
  54  0.004  0.677  0.435-   7 1.06  22 1.08
  55  0.668  0.491  0.484-  24 1.05  15 1.07
  56  0.506  0.502  0.467-  10 1.08  24 1.13   5 1.14
  57  0.287  0.593  0.558-  35 1.65  39 1.66  34 2.10  38 2.11  10 2.18  12 2.19

IMPORTANT INFORMATION: All symmetrisations will be switched off!
NOSYMM: (Re-)initialisation of all symmetry stuff for point group C_1.

 KPOINTS: K-Points

Automatic generation of k-mesh.
Space group operators:
 irot       det(A)        alpha          n_x          n_y          n_z        tau_x        tau_y        tau_z
    1     1.000000     0.000000     1.000000     0.000000     0.000000     0.000000     0.000000     0.000000

 Subroutine IBZKPT returns following result:

 Found      5 irreducible k-points:

 Following reciprocal coordinates:
            Coordinates               Weight
  0.000000  0.000000  0.000000      1.000000
  0.333333  0.000000  0.000000      2.000000
  0.000000  0.333333  0.000000      2.000000
  0.333333  0.333333  0.000000      2.000000
 -0.333333  0.333333  0.000000      2.000000

 Following cartesian coordinates:
            Coordinates               Weight
  0.000000  0.000000  0.000000      1.000000
  0.024277  0.014368  0.000000      2.000000
  0.000396  0.028736  0.000000      2.000000
  0.024673  0.043104  0.000000      2.000000
 -0.023881  0.014368  0.000000      2.000000

 TETIRR: Found     24 inequivalent tetrahedra from       54

 SYSTEM =  unknown system
 POSCAR =  POSCAR-c3n4

 Startparameter for this run:
   NWRITE =      2    write-flag & timer
   PREC   = normal    normal or accurate (medium, high low for compatibility)
   ISTART =      0    job   : 0-new  1-cont  2-samecut
   ICHARG =      2    charge: 1-file 2-atom 10-const
   ISPIN  =      2    spin polarized calculation?
   LNONCOLLINEAR =      F non collinear calculations
   LSORBIT =      F    spin-orbit coupling
   INIWAV =      1    electr: 0-lowe 1-rand  2-diag
   LASPH  =      F    aspherical Exc in radial PAW
   METAGGA=      F    non-selfconsistent MetaGGA calc.

 Electronic Relaxation 1
   ENCUT  =  440.0 eV  32.34 Ry    5.69 a.u.  18.94 18.59 20.52*2*pi/ulx,y,z
   ENINI  =  440.0     initial cutoff
   ENAUG  =  644.9 eV  augmentation charge cutoff
   NELM   =    100;   NELMIN=  2; NELMDL= -5     # of ELM steps
   EDIFF  = 0.1E-03   stopping-criterion for ELM
   LREAL  =      F    real-space projection
   NLSPLINE    = F    spline interpolate recip. space projectors
   LCOMPAT=      F    compatible to vasp.4.4
   GGA_COMPAT  = T    GGA compatible to vasp.4.4-vasp.4.6
   LMAXPAW     = -100 max onsite density
   LMAXMIX     =    2 max onsite mixed and CHGCAR
   VOSKOWN=      0    Vosko Wilk Nusair interpolation
   ROPT   =    0.00000   0.00000   0.00000
 Ionic relaxation
   EDIFFG = -.1E-01   stopping-criterion for IOM
   NSW    =      0    number of steps for IOM
   NBLOCK =      1;   KBLOCK =      1    inner block; outer block
   IBRION =     -1    ionic relax: 0-MD 1-quasi-New 2-CG
   NFREE  =      0    steps in history (QN), initial steepest desc. (CG)
   ISIF   =      2    stress and relaxation
   IWAVPR =     10    prediction:  0-non 1-charg 2-wave 3-comb
   ISYM   =      0    0-nonsym 1-usesym 2-fastsym
   LCORR  =      T    Harris-Foulkes like correction to forces

   POTIM  = 0.5000    time-step for ionic-motion
   TEIN   =    0.0    initial temperature
   TEBEG  =    0.0;   TEEND  =   0.0 temperature during run
   SMASS  =  -3.00    Nose mass-parameter (am)
   estimated Nose-frequenzy (Omega)   =  0.10E-29 period in steps =****** mass=  -0.280E-26a.u.
   SCALEE = 1.0000    scale energy and forces
   NPACO  =    256;   APACO  = 16.0  distance and # of slots for P.C.
   PSTRESS=    0.0 pullay stress

  Mass of Ions in am
   POMASS =  12.01 14.00 72.61
  Ionic Valenz
   ZVAL   =   4.00  5.00 14.00
  Atomic Wigner-Seitz radii
  virtual crystal weights
   VCA    =   1.00  1.00  1.00
   NELECT =     270.0000    total number of electrons
   NUPDOWN=      -1.0000    fix difference up-down

 DOS related values:
   EMIN   = -14.00;   EMAX   =  6.00  energy-range for DOS
   EFERMI =   0.00
   ISMEAR =    -5;   SIGMA  =   0.20  broadening in eV -4-tet -1-fermi 0-gaus

 Electronic relaxation 2 (details)
   IALGO  =     38    algorithm
   LDIAG  =      T    sub-space diagonalisation (order eigenvalues)
   LSUBROT=      F    optimize rotation matrix (better conditioning)
   TURBO    =      0    0=normal 1=particle mesh
   IRESTART =      0    0=no restart 2=restart with 2 vectors
   NREBOOT  =      0    no. of reboots
   NMIN     =      0    reboot dimension
   EREF     =   0.00    reference energy to select bands
   IMIX   =      4    mixing-type and parameters
     AMIX     =   0.25;   BMIX     =  0.00
     AMIX_MAG =   1.00;   BMIX_MAG =  0.00
     AMIN     =   0.10
     WC   =   100.;   INIMIX=   1;  MIXPRE=   1;  MAXMIX= -45

 Intra band minimization:
   WEIMIN = 0.0000     energy-eigenvalue tresh-hold
   EBREAK =  0.15E-06  absolut break condition
   DEPER  =   0.30     relativ break condition

   TIME   =   0.40     timestep for ELM

  volume/ion in A,a.u.               =      21.64       146.01
  Fermi-wavevector in a.u.,A,eV,Ry     =   0.986682  1.864559 13.245847  0.973542
  Thomas-Fermi vector in A             =   2.118081

 Write flags
   LWAVE        =      F    write WAVECAR
   LDOWNSAMPLE  =      F    k-point downsampling of WAVECAR
   LCHARG       =      F    write CHGCAR
   LVTOT        =      F    write LOCPOT, total local potential
   LVHAR        =      F    write LOCPOT, Hartree potential only
   LELF         =      F    write electronic localiz. function (ELF)
   LORBIT       =     11    0 simple, 1 ext, 2 COOP (PROOUT), +10 PAW based schemes

 Dipole corrections
   LMONO  =      F    monopole corrections only (constant potential shift)
   LDIPOL =      F    correct potential (dipole corrections)
   IDIPOL =      0    1-x, 2-y, 3-z, 4-all directions
   EPSILON=  1.0000000 bulk dielectric constant

 Exchange correlation treatment:
   GGA     =    --    GGA type
   VOSKOWN=      0    Vosko Wilk Nusair interpolation
   LHFCALC =     F    Hartree Fock is set to
   LHFONE  =     F    Hartree Fock one center treatment
   AEXX    =    0.0000 exact exchange contribution

 Linear response parameters
   LEPSILON=     F    determine dielectric tensor
[...]
  Kinetic  5589.77636  5615.17799  5775.34191     6.33282   -23.99272    -8.73458
  Fock        0.00000     0.00000     0.00000     0.00000     0.00000     0.00000
  vdW        -5.67397    -5.53467    -0.66430     0.00286    -0.02096    -0.00650
  Total    1334.37338  1197.81801   275.39108   -23.84629    67.49763    36.72307
  in kB    1733.53225  1556.12828   357.77042   -30.97956    87.68859    47.70826

 VOLUME and BASIS-vectors are now :
  energy-cutoff  :      440.00
  volume of cell :     1233.26
      direct lattice vectors                 reciprocal lattice vectors
    11.074739388 -0.152592379  0.000000000     0.091037962  0.053880143  0.000000000
    -5.537369694  9.356152795  0.000000000     0.001484766  0.107760286  0.000000000
     0.000000000  0.000000000 12.000000000     0.000000000  0.000000000  0.083333333

  length of vectors
    11.075790579 10.871985019 12.000000000     0.105787430  0.107770514  0.083333333

 FORCES acting on ions
    electron-ion (+dipol)            ewald-force                    non-local-force                 convergence-correction
   -.814E+01 0.213E+02 0.170E+03   0.839E+01 -.161E+02 -.172E+03   -.221E+00 0.450E+01 -.122E+01   -.143E-01 0.641E-02 0.253E-02
   -.914E+01 0.428E+02 0.188E+03   0.163E+01 -.430E+02 -.188E+03   -.407E+01 0.147E+01 0.291E+00   -.168E-01 -.118E-01 -.293E-02
   -.108E+02 0.464E+02 0.187E+03   0.185E+02 -.464E+02 -.186E+03   0.361E+01 0.143E+01 0.722E+00   -.235E-01 -.766E-02 -.267E-02
   0.102E+03 -.840E+02 -.126E+03   -.106E+03 0.846E+02 0.128E+03   0.424E+01 -.217E+01 -.633E+00   0.206E-01 -.236E-01 -.113E-02
   -.216E+02 0.811E+02 0.292E+03   0.210E+02 -.824E+02 -.296E+03   -.295E+00 0.457E+01 0.308E+01   -.436E-02 -.591E-02 0.117E-02
   -.953E+02 -.282E+02 0.141E+03   0.987E+02 0.288E+02 -.143E+03   -.416E+01 -.216E+01 0.181E+01   -.422E-02 -.325E-02 0.338E-02
   0.609E+02 -.341E+02 -.456E+02   -.598E+02 0.389E+02 0.496E+02   0.102E+01 0.293E+01 0.854E+00   0.128E-01 -.368E-02 -.316E-02
   0.309E+02 -.289E+02 -.713E+02   -.351E+02 0.244E+02 0.717E+02   -.330E+01 -.244E+01 0.732E+00   0.143E-01 -.102E-01 0.113E-02
   -.459E+01 -.741E+01 -.861E+02   0.892E+01 0.238E+01 0.878E+02   0.379E+01 -.170E+01 0.416E+00   0.149E-01 -.380E-02 -.160E-02
   -.369E+02 0.238E+02 -.106E+03   0.338E+02 -.240E+02 0.108E+03   0.119E+01 -.207E+01 -.165E+01   -.603E-02 0.122E-01 0.524E-02
   -.488E+01 0.320E+02 0.678E+02   0.503E+01 -.369E+02 -.693E+02   0.113E+00 0.447E+01 -.550E+00   -.588E-02 0.780E-02 0.102E-01
   0.483E+02 0.208E+02 -.932E+02   -.453E+02 -.214E+02 0.971E+02   -.126E+01 -.268E+01 -.103E+01   -.775E-02 -.237E-02 -.687E-02
   -.517E+01 -.178E+02 -.251E+02   0.600E+01 0.212E+02 0.218E+02   -.368E+00 0.446E+01 -.959E+00   0.164E-01 -.114E-01 -.499E-02
   0.492E+02 0.390E+02 0.282E+03   -.541E+02 -.414E+02 -.283E+03   -.396E+01 -.148E+01 -.134E+01   0.275E-01 -.102E-01 0.434E-02
   -.114E+02 0.271E+02 0.126E+03   0.167E+02 -.323E+02 -.127E+03   0.393E+01 -.125E+01 -.521E+00   0.150E-01 -.169E-01 -.383E-02
   0.986E+02 -.269E+02 0.963E+02   -.102E+03 0.271E+02 -.980E+02   0.421E+01 -.227E+01 0.951E+00   -.352E-02 0.549E-02 0.201E-02
   0.611E+01 0.114E+03 0.313E+03   -.355E+01 -.115E+03 -.318E+03   -.423E+00 0.428E+01 0.269E+01   0.359E-02 0.130E-02 0.864E-02
   -.969E+02 -.881E+02 -.143E+03   0.101E+03 0.893E+02 0.146E+03   -.412E+01 -.204E+01 -.785E+00   -.123E-01 -.131E-01 -.346E-02
   -.527E+02 -.316E+02 -.204E+03   0.494E+02 0.380E+02 0.208E+03   -.443E+00 0.296E+01 0.765E+00   -.149E-01 0.195E-01 0.321E-02
   0.846E+01 -.944E+01 -.156E+03   -.140E+02 0.454E+01 0.161E+03   -.384E+01 -.160E+01 0.601E+00   -.151E-01 0.905E-02 -.932E-03
   -.338E+02 -.229E+02 -.129E+03   0.393E+02 0.181E+02 0.131E+03   0.305E+01 -.256E+01 0.152E+01   -.136E-01 0.463E-02 0.318E-02
   0.111E+03 -.102E+03 0.203E+03   -.111E+03 0.108E+03 -.204E+03   0.388E+01 -.345E+01 0.608E+00   0.253E-01 -.124E-01 0.449E-02
   -.157E+02 0.654E+02 -.275E+03   0.158E+02 -.695E+02 0.280E+03   -.111E+00 0.475E+01 -.211E+01   0.283E-02 0.115E-01 -.801E-02
   -.127E+03 -.378E+02 -.879E+02   0.129E+03 0.397E+02 0.906E+02   -.455E+01 -.171E+01 -.173E+01   -.915E-02 0.463E-02 0.172E-02
   -.205E+02 0.560E+02 0.247E+03   0.218E+02 -.558E+02 -.253E+03   -.320E+00 0.195E+01 0.386E+01   -.350E-01 -.766E-02 0.207E-02
   -.283E+03 -.440E+02 0.326E+03   0.342E+03 0.760E+02 -.352E+03   -.336E+02 -.169E+02 0.140E+02   -.598E-02 0.385E-02 0.394E-02
   0.227E+03 -.223E+03 -.344E+03   -.285E+03 0.255E+03 0.370E+03   0.324E+02 -.177E+02 -.107E+02   0.178E-01 -.224E-01 -.117E-02
   0.855E+01 0.249E+03 0.575E+03   -.365E+01 -.304E+03 -.621E+03   -.106E+01 0.303E+02 0.227E+02   0.719E-02 -.258E-01 -.117E-01
   -.524E+02 0.203E+03 0.606E+03   0.502E+02 -.252E+03 -.659E+03   0.105E+01 0.294E+02 0.269E+02   -.135E-01 -.223E-01 -.746E-02
   0.282E+03 -.141E+03 -.163E+03   -.339E+03 0.181E+03 0.167E+03   0.313E+02 -.195E+02 -.656E-01   0.181E-01 -.232E-01 -.151E-02
   -.211E+03 -.117E+03 0.366E+03   0.268E+03 0.136E+03 -.407E+03   -.318E+02 -.114E+02 0.203E+02   0.155E-01 -.783E-02 0.152E-02
   -.638E+01 -.314E+01 -.351E+02   0.708E+01 0.258E+01 0.375E+02   -.229E+00 0.323E+00 -.108E+01   -.212E-02 0.870E-02 -.404E-02
   0.236E+02 -.326E+02 -.141E+03   -.236E+02 0.342E+02 0.150E+03   0.370E+00 -.827E+00 -.433E+01   0.251E-01 -.725E-02 0.253E-04
   0.208E+00 -.857E+02 -.437E+03   0.393E+02 0.113E+03 0.487E+03   -.236E+02 -.151E+02 -.251E+02   0.127E-01 0.900E-02 -.659E-02
   0.719E+01 0.988E+02 -.109E+03   -.457E+02 -.935E+02 0.129E+03   0.198E+02 -.396E+01 -.109E+02   -.337E-01 0.151E-01 0.122E-01
   -.229E+02 0.163E+03 0.177E+03   0.287E+02 -.227E+03 -.200E+03   -.185E+01 0.348E+02 0.966E+01   -.197E-01 0.111E-01 0.154E-01
   -.173E+01 0.158E+03 0.199E+03   -.247E+01 -.222E+03 -.221E+03   0.120E+01 0.348E+02 0.976E+01   0.239E-02 -.314E-02 0.144E-01
   0.568E+02 -.837E+02 -.481E+03   -.105E+03 0.112E+03 0.522E+03   0.285E+02 -.154E+02 -.188E+02   -.205E-01 0.293E-01 0.559E-02
   0.181E+01 0.112E+03 -.153E+03   0.333E+02 -.109E+03 0.182E+03   -.182E+02 -.330E+01 -.148E+02   -.102E-01 0.546E-02 -.188E-04
   0.696E+02 0.248E+02 0.110E+03   -.796E+02 -.315E+02 -.111E+03   0.393E+01 0.287E+01 -.137E+00   -.191E-02 -.163E-01 -.260E-02
   0.199E+02 0.577E+02 0.218E+03   -.245E+02 -.606E+02 -.228E+03   0.229E+01 0.180E+01 0.421E+01   0.386E-01 -.212E-01 -.323E-02
   -.278E+03 -.149E+03 -.179E+03   0.335E+03 0.187E+03 0.183E+03   -.313E+02 -.183E+02 -.127E+01   0.633E-02 -.606E-02 -.814E-02
   0.216E+03 -.998E+02 0.282E+03   -.276E+03 0.118E+03 -.319E+03   0.329E+02 -.110E+02 0.169E+02   -.174E-01 0.107E-01 0.566E-03
   0.144E+02 0.235E+03 0.627E+03   -.753E+01 -.286E+03 -.677E+03   -.374E+01 0.307E+02 0.237E+02   -.163E-01 -.407E-03 0.112E-01
   0.261E+01 0.342E+03 0.524E+03   -.670E+01 -.409E+03 -.550E+03   0.846E-01 0.350E+02 0.111E+02   0.138E-01 0.901E-03 0.148E-01
   0.284E+03 -.452E+02 0.198E+03   -.345E+03 0.800E+02 -.211E+03   0.339E+02 -.180E+02 0.729E+01   -.175E-01 0.225E-01 0.279E-02
   -.207E+03 -.230E+03 -.424E+03   0.261E+03 0.262E+03 0.455E+03   -.310E+02 -.174E+02 -.136E+02   -.159E-01 -.434E-02 -.368E-02
   0.117E+01 -.474E+02 -.202E+02   -.102E+01 0.503E+02 0.152E+02   -.191E+00 -.140E+01 0.199E+01   0.173E-02 -.126E-01 0.287E-02
   -.231E+02 -.366E+02 -.276E+03   0.221E+02 0.408E+02 0.288E+03   0.148E+00 -.228E+01 -.586E+01   -.236E-01 0.162E-01 0.427E-02
   -.326E+03 -.932E+02 -.136E+03   0.386E+03 0.128E+03 0.139E+03   -.323E+02 -.189E+02 -.208E+01   -.721E-02 0.212E-01 0.154E-02
   0.256E+03 -.218E+03 0.443E+03   -.316E+03 0.247E+03 -.463E+03   0.316E+02 -.178E+02 0.664E+01   0.334E-01 -.168E-01 0.394E-02
   0.103E+01 0.216E+03 -.559E+03   0.755E+01 -.269E+03 0.606E+03   -.369E+01 0.298E+02 -.233E+02   0.233E-01 -.320E-02 -.483E-02
   -.520E+02 0.166E+03 -.627E+03   0.497E+02 -.214E+03 0.682E+03   0.598E+00 0.289E+02 -.272E+02   -.141E-01 0.888E-02 -.246E-03
   0.273E+03 -.186E+03 0.343E+03   -.321E+03 0.228E+03 -.370E+03   0.257E+02 -.227E+02 0.119E+02   0.230E-01 -.656E-02 0.148E-02
   -.242E+03 -.109E+03 -.267E+03   0.304E+03 0.124E+03 0.298E+03   -.329E+02 -.112E+02 -.145E+02   0.232E-01 -.540E-02 0.827E-02
   -.662E+02 0.292E+02 0.631E+02   0.732E+02 -.349E+02 -.696E+02   -.239E+01 0.224E+01 0.199E+01   -.267E-02 0.180E-02 0.511E-02
   0.680E+02 -.168E+03 -.146E+04   -.706E+02 0.196E+03 0.151E+04   0.172E+01 -.189E+02 -.313E+02   -.678E-01 0.689E-01 -.109E+00
   0.278E+01 -.700E+01 0.967E+01   0.625E-12 -.739E-12 -.455E-12   -.271E+01 0.704E+01 -.967E+01   -.612E-01 -.328E-01 -.408E-01

 POSITION                                       TOTAL-FORCE (eV/Angst)
     -0.01196      1.98159      5.11757         0.018163      9.714179     -3.296345
      0.97649      3.68608      5.19790       -11.600524      1.303320     -0.116437
     -1.01991      3.64965      5.12745        11.289447      1.404752      1.197141
      4.60054      0.52903      6.06833         0.660466     -1.541117      1.999173
      2.79044      3.68508      4.95031        -0.927350      3.246179     -0.988151
      0.94872      0.47634      5.38418        -0.839681     -1.503041     -0.443736
     -2.87473      6.64604      5.80682         2.181349      7.713403      4.867959
     -1.77963      8.28418      6.01441        -7.477171     -6.937732      1.189653
     -3.74628      8.36056      5.97750         8.134475     -6.736773      2.104824
      1.92468      5.06136      6.02285        -1.942205     -2.225972      0.444483
      0.03153      8.21411      5.86764         0.261042     -0.467953     -1.957587
     -2.03934      5.05875      5.76805         1.737144     -3.252945      2.931464
      5.58925      1.99172      5.67245         0.478388      7.820837     -4.264779
      6.48311      3.52687      4.79859        -8.823119     -3.827978     -2.120166
      4.57626      3.59621      5.22554         9.197402     -6.472053     -1.596509
     10.11531      0.34594      5.52840         0.528552     -2.016547     -0.683582
      8.27786      3.47288      4.72656         2.146035      2.560127     -2.173335
      6.53402      0.51855      6.14438         0.005515     -0.795065      1.675051
      2.85326      6.56038      6.37499        -3.773409      9.378206      4.710954
      3.77884      8.27450      6.27456        -9.373632     -6.501394      4.920798
      1.80742      8.25721      6.25592         8.497298     -7.358823      3.484868
      7.27503      5.12278      5.04611         3.873686      2.480702     -0.482839
      5.57614      8.29099      6.41597         0.029099      0.668561      2.392870
      3.80947      5.09463      5.87832        -3.083892      0.246206      1.019871
     -0.01148      3.11311      5.10034         0.889923      2.167787     -2.538154
      0.93310      1.48092      5.05142        25.678674     15.117444    -12.275200
      3.71405     -0.03441      6.26589       -25.308579     14.238527     15.539744
      3.71583      3.21966      4.70863         3.845738    -24.146674    -23.891723
      1.82007      3.32259      4.67703        -1.216509    -19.890890    -25.845836
      4.62138      1.57640      5.91782       -25.489003     20.581473      3.794883
     -3.71422      9.22171      5.35988        25.321714      7.478757    -21.254995
      0.01346      0.01711      5.79410         0.464262     -0.229501      1.334269
     -2.77742      7.74826      6.00311         0.434300      0.763672      4.695556
     -2.08899      6.01678      6.21346        15.868799     12.027922     25.569089
      0.97604      4.54447      5.89861       -18.725822      1.399803      9.348967
      0.96896      7.69618      5.87668         3.899799    -29.068230    -12.433154
     -0.90360      7.70849      5.75248        -2.992578    -28.989334    -12.451528
      1.93814      5.98694      6.53801       -19.711048     12.592448     22.247053
     -1.10843      4.50344      5.82139        16.881111      0.536924     14.317424
      8.19993      4.48942      5.23186        -6.001168     -3.914441     -0.918244
      5.56270      2.98713      5.15181        -2.333445     -1.113085     -5.195178
      6.54175      1.56187      5.94285        26.174056     19.805480      2.572467
      3.69995      9.10105      5.61419       -26.418408      6.684516    -19.728131
     -1.80604      3.25520      4.54563         3.134890    -20.950306    -25.914052
      7.36910      2.96235      4.55434        -3.983166    -31.180919    -14.143615
     10.10517      1.35500      5.22157       -26.664379     16.767750     -6.220488
      7.37849     -0.05300      6.47377        23.220240     14.507300     18.220894
      5.56957     -0.04070      5.97971        -0.032344      1.449063     -3.028363
      2.79267      7.68493      6.41039        -0.932559      1.993411      6.428238
      3.79429      6.12360      6.14958        27.806916     15.615112      0.491472
      6.40983      4.61350      4.74896       -29.251196     11.419610    -14.038586
     -4.54788      7.97833      6.58413         4.912227    -23.472085     23.312231
      4.64542      7.91263      6.79260        -1.674516    -19.042105     27.528948
     -3.70328      6.33594      5.21466       -22.173229     19.644477    -14.717813
      4.67235      4.49461      5.80585        29.535361      4.695934     15.968279
      2.82137      4.61772      5.60593         4.622745     -3.451666     -4.421296
     -0.10715      5.50334      6.69354        -0.979884      9.062749     12.831202
    total drift:                                0.007209      0.005001     -0.033809

  FREE ENERGIE OF THE ION-ELECTRON SYSTEM (eV)
  free  energy   TOTEN  =      -212.75991480 eV

  energy  without entropy=     -212.75991480  energy(sigma->0) =     -212.75991480

 stress matrix after NEB project (eV)
   1334.37338    -23.84629     36.72307
    -23.84629   1197.81801     67.49763
     36.72307     67.49763    275.39108
  FORCES: max atom, RMS    34.469655   21.749378
  FORCE total and by dimension  164.204206   31.180919
  Stress total and by dimension 1817.720243 1334.373384

 total charge

[...]

 magnetization (x)

# of ion       s       p       d       tot
    1       -0.000   0.000   0.000   0.000
    2       -0.000  -0.000   0.000  -0.000
    3       -0.000   0.000   0.000   0.000
    4       -0.000   0.000   0.000   0.000
    5        0.000  -0.000   0.000  -0.000
    6       -0.000   0.000   0.000   0.000
    7        0.000   0.000   0.000   0.000
    8       -0.000  -0.000   0.000  -0.000
    9        0.000   0.000   0.000   0.000
   10        0.000   0.000   0.000   0.000
   11       -0.000   0.000   0.000  -0.000
   12       -0.000   0.000   0.000   0.000
   13       -0.000   0.000   0.000   0.000
   14        0.000   0.000   0.000   0.000
   15        0.000   0.000   0.000   0.000
   16       -0.000  -0.000   0.000  -0.000
   17       -0.000   0.000   0.000   0.000
   18       -0.000   0.000   0.000   0.000
   19       -0.000  -0.000   0.000  -0.000
   20        0.000   0.000   0.000   0.000
   21       -0.000  -0.000   0.000  -0.000
   22       -0.000   0.000   0.000   0.000
   23       -0.000   0.000   0.000  -0.000
   24       -0.000  -0.000   0.000  -0.000
   25       -0.000   0.000   0.000  -0.000
   26       -0.000  -0.000   0.000  -0.000
   27       -0.000   0.000   0.000   0.000
   28        0.000  -0.000   0.000   0.000
   29        0.000  -0.000   0.000  -0.000
   30       -0.000   0.000   0.000  -0.000
   31       -0.000  -0.000   0.000  -0.000
   32        0.000   0.000   0.000   0.000
   33       -0.000   0.000   0.000   0.000
   34       -0.000  -0.000   0.000  -0.000
   35        0.000  -0.000   0.000   0.000
   36       -0.000   0.000   0.000  -0.000
   37       -0.000   0.000   0.000   0.000
   38       -0.000  -0.000   0.000  -0.000
   39       -0.000   0.000   0.000  -0.000
   40       -0.000   0.000   0.000   0.000
   41       -0.000  -0.000   0.000  -0.000
   42       -0.000   0.000   0.000  -0.000
   43        0.000  -0.000   0.000   0.000
   44       -0.000  -0.000   0.000  -0.000
   45       -0.000  -0.000   0.000  -0.000
   46       -0.000   0.000   0.000  -0.000
   47       -0.000   0.000   0.000   0.000
   48       -0.000   0.000   0.000   0.000
   49        0.000  -0.000   0.000   0.000
   50        0.000   0.000   0.000   0.000
   51       -0.000  -0.000   0.000  -0.000
   52        0.000  -0.000   0.000  -0.000
   53        0.000  -0.000   0.000   0.000
   54       -0.000  -0.000   0.000  -0.000
   55        0.000  -0.000   0.000   0.000
   56        0.000  -0.000   0.000   0.000
   57       -0.000  -0.000  -0.000  -0.000
tot         -0.000   0.000  -0.000   0.000

 BZINTS: Fermi energy:  1.131283;270.000000 electrons
         Band energy:***********;  BLOECHL correction:  0.000000