 vasp.5.4.4.18Apr17-6-g9f103f2a35 (build Jan 14 2022 15:04:31) complex

 executed on             LinuxIFC date 2023.01.23  23:30:16

 INCAR:
 POTCAR:    PAW_PBE C 08Apr2002
 POTCAR:    PAW_PBE N 08Apr2002
 POTCAR:    PAW_PBE C 08Apr2002
 POTCAR:    PAW_PBE Cr_pv 02Aug2007
 POTCAR:    PAW_PBE C 08Apr2002
   VRHFIN =C: s2p2

   TITEL  = PAW_PBE C 08Apr2002
   POMASS =   12.011; ZVAL   =    4.000    mass and valenz
   ENMAX  =  400.000; ENMIN  =  300.000 eV

[...]

   TITEL  = PAW_PBE C 08Apr2002
   POMASS =   12.011; ZVAL   =    4.000    mass and valenz
   ENMAX  =  400.000; ENMIN  =  300.000 eV

   TITEL  = PAW_PBE Cr_pv 02Aug2007
   POMASS =   51.996; ZVAL   =   12.000    mass and valenz
   ENMAX  =  265.681; ENMIN  =  199.261 eV

 Optimization of the real space projectors (new method)

 maximal supplied QI-value         = 25.13
 optimisation between [QCUT,QGAM] = [ 10.56, 21.36] = [ 31.20,127.80] Ry
 Optimized for a Real-space Cutoff    1.32 Angstroem

   l    n(q)    QCUT    max X(q) W(low)/X(q) W(high)/X(q)  e(spline)
   0      8    10.556   115.676    0.17E-03    0.39E-03    0.26E-06
   0      8    10.556    87.132    0.17E-03    0.39E-03    0.26E-06
   1      8    10.556     4.429    0.24E-03    0.31E-03    0.16E-06
   1      8    10.556     2.733    0.17E-03    0.22E-03    0.19E-06
 Optimization of the real space projectors (new method)

[...]

   l    n(q)    QCUT    max X(q) W(low)/X(q) W(high)/X(q)  e(spline)
   0      8    10.556   115.676    0.17E-03    0.39E-03    0.26E-06
   0      8    10.556    87.132    0.17E-03    0.39E-03    0.26E-06
   1      8    10.556     4.429    0.24E-03    0.31E-03    0.16E-06
   1      8    10.556     2.733    0.17E-03    0.22E-03    0.19E-06
 Optimization of the real space projectors (new method)

 maximal supplied QI-value         = 16.25
 optimisation between [QCUT,QGAM] = [ 10.73, 21.45] = [ 32.22,128.87] Ry
 Optimized for a Real-space Cutoff    1.53 Angstroem

   l    n(q)    QCUT    max X(q) W(low)/X(q) W(high)/X(q)  e(spline)
   1      9    10.726     3.262    0.64E-04    0.35E-04    0.11E-06
   1      9    10.726     5.741    0.13E-03    0.48E-04    0.19E-06
   2      9    10.726    60.438    0.12E-03    0.29E-04    0.13E-06
   2      9    10.726    55.380    0.12E-03    0.29E-04    0.13E-06
   0     10    10.726    80.273    0.43E-04    0.74E-05    0.81E-07
   0     10    10.726    36.654    0.34E-04    0.61E-05    0.73E-07
  PAW_PBE C 08Apr2002                   :
  PAW_PBE N 08Apr2002                   :
  PAW_PBE C 08Apr2002                   :
  PAW_PBE Cr_pv 02Aug2007               :

 POSCAR: POSCAR-clean
  positions in direct lattice
  velocities in cartesian coordinates
 exchange correlation table for  LEXCH =        8
   RHO(1)=    0.500       N(1)  =     2000
   RHO(2)=  100.500       N(2)  =     4000

 VTST: version 3.2, (02/03/18)

 CHAIN: initializing optimizer

 OPT: Using VASP Conjugate-Gradient optimizer
 CHAIN: Read ICHAIN            0

 POSCAR: POSCAR-clean
  positions in direct lattice
  velocities in cartesian coordinates

 ion  position               nearest neighbor table
   1  1.000  1.000  0.498-  60 1.42   2 1.42  70 1.44
   2  0.056  0.111  0.498-  13 1.42   1 1.42  15 1.43
   3  0.168  0.002  0.498-   4 1.42  62 1.43  60 1.43
   4  0.224  0.113  0.498-   3 1.42  15 1.42  17 1.43
   5  0.334  0.002  0.498-   6 1.42  64 1.42  62 1.43
   6  0.390  0.113  0.498-  19 1.42   5 1.42  17 1.43
   7  0.501  0.000  0.498-  64 1.43  66 1.43   8 1.43
   8  0.557  0.112  0.498-  21 1.42   7 1.43  19 1.43
   9  0.666  0.999  0.498-  66 1.42  10 1.43  68 1.44
  10  0.722  0.110  0.498-  21 1.42  23 1.42   9 1.43
  11  0.832  0.998  0.498-  70 1.42  12 1.42  68 1.43
  12  0.888  0.110  0.498-  23 1.42  11 1.42  13 1.43
  13  0.999  0.166  0.498-  14 1.42   2 1.42  12 1.43
  14  0.054  0.277  0.498-  13 1.42  25 1.43  27 1.43
  15  0.168  0.168  0.498-   4 1.42  16 1.42   2 1.43
  16  0.223  0.280  0.500-  15 1.42  27 1.42  29 1.44
  17  0.335  0.170  0.499-  18 1.42   6 1.43   4 1.43
  18  0.391  0.281  0.502-  17 1.42  29 1.43  31 1.44
  19  0.501  0.168  0.498-   6 1.42  20 1.42   8 1.43
  20  0.558  0.280  0.500-  33 1.42  19 1.42  31 1.45
  21  0.667  0.167  0.498-  22 1.41   8 1.42  10 1.42
  22  0.723  0.277  0.498-  21 1.41  35 1.41  33 1.41
  23  0.833  0.165  0.498-  24 1.42  12 1.42  10 1.42
  24  0.887  0.276  0.498-  23 1.42  35 1.42  25 1.43
  25  0.999  0.333  0.498-  26 1.42  14 1.43  24 1.43
  26  0.055  0.444  0.499-  37 1.41  39 1.42  25 1.42
  27  0.166  0.333  0.500-  28 1.42  16 1.42  14 1.43
  28  0.220  0.444  0.502-  41 1.41  27 1.42  39 1.42
  29  0.336  0.338  0.503-  30 1.42  18 1.43  16 1.44
  30  0.389  0.449  0.508-  41 1.41  29 1.42  71 1.98
  31  0.503  0.338  0.504-  32 1.42  18 1.44  20 1.45
  32  0.561  0.449  0.510-  43 1.40  31 1.42  71 2.00
  33  0.668  0.333  0.500-  22 1.41  34 1.41  20 1.42
  34  0.725  0.443  0.502-  33 1.41  43 1.42  45 1.42
  35  0.832  0.332  0.498-  22 1.41  36 1.42  24 1.42
  36  0.888  0.443  0.498-  45 1.41  35 1.42  37 1.43
  37  1.000  0.499  0.498-  26 1.41  38 1.42  36 1.43
  38  0.055  0.611  0.498-  47 1.42  49 1.42  37 1.42
  39  0.165  0.500  0.501-  26 1.42  28 1.42  40 1.42
  40  0.221  0.611  0.501-  49 1.41  39 1.42  51 1.42
  41  0.330  0.500  0.505-  30 1.41  28 1.41  42 1.43
  42  0.386  0.612  0.505-  53 1.41  51 1.41  41 1.43
  43  0.670  0.499  0.505-  32 1.40  34 1.42  44 1.44
  44  0.726  0.611  0.505-  55 1.41  57 1.41  43 1.44
  45  0.835  0.500  0.500-  36 1.41  46 1.42  34 1.42
  46  0.891  0.611  0.500-  45 1.42  47 1.42  57 1.42
  47  0.001  0.667  0.498-  46 1.42  38 1.42  48 1.42
  48  0.056  0.779  0.498-  59 1.42  47 1.42  61 1.43
  49  0.166  0.667  0.499-  40 1.41  38 1.42  50 1.43
  50  0.223  0.779  0.498-  61 1.42  63 1.42  49 1.43
  51  0.332  0.667  0.502-  42 1.41  52 1.42  40 1.42
  52  0.388  0.778  0.500-  51 1.42  65 1.42  63 1.42
  53  0.496  0.663  0.509-  42 1.41  54 1.42  71 1.97
  54  0.553  0.774  0.503-  53 1.42  67 1.43  65 1.44
  55  0.666  0.661  0.509-  44 1.41  56 1.42  71 1.99
  56  0.720  0.773  0.503-  55 1.42  67 1.43  69 1.44
  57  0.836  0.667  0.502-  44 1.41  58 1.42  46 1.42
  58  0.890  0.778  0.500-  57 1.42  69 1.42  59 1.43
  59  0.001  0.834  0.498-  60 1.42  48 1.42  58 1.43
  60  0.057  0.946  0.498-  59 1.42   1 1.42   3 1.43
  61  0.168  0.835  0.498-  50 1.42  62 1.42  48 1.43
  62  0.223  0.946  0.498-  61 1.42   5 1.43   3 1.43
  63  0.334  0.834  0.498-  64 1.42  50 1.42  52 1.42
  64  0.390  0.946  0.498-  63 1.42   5 1.42   7 1.43
  65  0.499  0.832  0.500-  52 1.42  66 1.43  54 1.44
  66  0.555  0.943  0.499-   9 1.42  65 1.43   7 1.43
  67  0.665  0.830  0.502-  68 1.42  54 1.43  56 1.43
  68  0.721  0.942  0.499-  67 1.42  11 1.43   9 1.44
  69  0.832  0.831  0.500-  58 1.42  70 1.43  56 1.44
  70  0.888  0.943  0.498-  11 1.42  69 1.43   1 1.44
  71  0.526  0.556  0.555-  53 1.97  30 1.98  55 1.99  32 2.00

IMPORTANT INFORMATION: All symmetrisations will be switched off!
NOSYMM: (Re-)initialisation of all symmetry stuff for point group C_1.

 KPOINTS: K-Points

Automatic generation of k-mesh.
Space group operators:
 irot       det(A)        alpha          n_x          n_y          n_z        tau_x        tau_y        tau_z
    1     1.000000     0.000000     1.000000     0.000000     0.000000     0.000000     0.000000     0.000000

 Subroutine IBZKPT returns following result:

 Found      4 irreducible k-points:

 Following reciprocal coordinates:
            Coordinates               Weight
  0.000000  0.000000  0.000000      1.000000
  0.500000  0.000000  0.000000      1.000000
 -0.000000  0.500000  0.000000      1.000000
  0.500000  0.500000  0.000000      1.000000

 Following cartesian coordinates:
            Coordinates               Weight
  0.000000  0.000000  0.000000      1.000000
  0.033689  0.019604  0.000000      1.000000
 -0.000004  0.039208  0.000000      1.000000
  0.033684  0.058812  0.000000      1.000000

 SYSTEM =  unknown system
 POSCAR =  POSCAR-clean

 Startparameter for this run:
   NWRITE =      2    write-flag & timer
   PREC   = accura    normal or accurate (medium, high low for compatibility)
   ISTART =      0    job   : 0-new  1-cont  2-samecut
   ICHARG =      2    charge: 1-file 2-atom 10-const
   ISPIN  =      2    spin polarized calculation?
   LNONCOLLINEAR =      F non collinear calculations
   LSORBIT =      F    spin-orbit coupling
   INIWAV =      1    electr: 0-lowe 1-rand  2-diag
   LASPH  =      F    aspherical Exc in radial PAW
   METAGGA=      F    non-selfconsistent MetaGGA calc.

 Electronic Relaxation 1
   ENCUT  =  440.0 eV  32.34 Ry    5.69 a.u.  25.38 25.23 25.66*2*pi/ulx,y,z
   ENINI  =  440.0     initial cutoff
   ENAUG  =  644.9 eV  augmentation charge cutoff
   NELM   =     50;   NELMIN=  2; NELMDL= -5     # of ELM steps
   EDIFF  = 0.1E-04   stopping-criterion for ELM
   LREAL  =      T    real-space projection
   NLSPLINE    = F    spline interpolate recip. space projectors
   LCOMPAT=      F    compatible to vasp.4.4
   GGA_COMPAT  = T    GGA compatible to vasp.4.4-vasp.4.6
   LMAXPAW     = -100 max onsite density
   LMAXMIX     =    2 max onsite mixed and CHGCAR
   VOSKOWN=      0    Vosko Wilk Nusair interpolation
   ROPT   =   -0.00025  -0.00025  -0.00025  -0.00025
 Ionic relaxation
   EDIFFG = -.5E-01   stopping-criterion for IOM
   NSW    =    400    number of steps for IOM
   NBLOCK =      1;   KBLOCK =    400    inner block; outer block
   IBRION =      2    ionic relax: 0-MD 1-quasi-New 2-CG
   NFREE  =      1    steps in history (QN), initial steepest desc. (CG)
   ISIF   =      2    stress and relaxation
   IWAVPR =     11    prediction:  0-non 1-charg 2-wave 3-comb
   ISYM   =      0    0-nonsym 1-usesym 2-fastsym
   LCORR  =      T    Harris-Foulkes like correction to forces

   POTIM  = 0.1000    time-step for ionic-motion
   TEIN   =    0.0    initial temperature
   TEBEG  =    0.0;   TEEND  =   0.0 temperature during run
   SMASS  =  -3.00    Nose mass-parameter (am)
   estimated Nose-frequenzy (Omega)   =  0.10E-29 period in steps =****** mass=  -0.503E-26a.u.
   SCALEE = 1.0000    scale energy and forces
   NPACO  =    256;   APACO  = 16.0  distance and # of slots for P.C.
   PSTRESS=    0.0 pullay stress

  Mass of Ions in am
   POMASS =  12.01 14.00 12.01 52.00
  Ionic Valenz
   ZVAL   =   4.00  5.00  4.00 12.00
  Atomic Wigner-Seitz radii
  virtual crystal weights
   VCA    =   1.00  1.00  1.00  1.00
   NELECT =     293.0000    total number of electrons
   NUPDOWN=      -1.0000    fix difference up-down

 DOS related values:
   EMIN   =  10.00;   EMAX   =-10.00  energy-range for DOS
   EFERMI =   0.00
   ISMEAR =     0;   SIGMA  =   0.10  broadening in eV -4-tet -1-fermi 0-gaus

 Electronic relaxation 2 (details)
   IALGO  =     58    algorithm
   LDIAG  =      T    sub-space diagonalisation (order eigenvalues)
   LSUBROT=      F    optimize rotation matrix (better conditioning)
   TURBO    =      0    0=normal 1=particle mesh
   IRESTART =      0    0=no restart 2=restart with 2 vectors
   NREBOOT  =      0    no. of reboots
   NMIN     =      0    reboot dimension
[...]
    176       2.3307      0.00000
    177       2.4399      0.00000
    178       2.5560      0.00000
    179       2.5857      0.00000
    180       2.6005      0.00000
    181       2.6231      0.00000
    182       2.6994      0.00000
    183       2.7493      0.00000
    184       3.0424      0.00000

[...]

 soft charge-density along one line, spin component           2
         0         1         2         3         4         5         6         7         8         9
 total charge-density along one line

------------------------ aborting loop because EDIFF is reached ----------------------------------------

         DFTD3 V3.0 Rev 1
 Edisp (eV)   -6.40216

 E6    (eV) :    -4.3726
 E8    (eV) :    -2.0296
 % E8        : 31.70

  FORCE on cell =-STRESS in cart. coord.  units (eV):
  Direction    XX          YY          ZZ          XY          YZ          ZX
  Alpha Z   157.46682   157.46682   157.46682
  Ewald   40605.70432 40627.55526-50730.02440    -8.43770     3.58610    -2.27934
  Hartree 40066.74693 40033.48844-39271.42952    -4.73349     2.86081    -1.67977
  E(xc)   -1111.46003 -1111.10900 -1150.59364    -0.01497     0.00177    -0.00600
  Local  -83878.72181-83855.44334 86209.24586    12.59604    -6.21523     3.38602
  n-local  -290.19030  -286.95928  -270.47362     0.11265     0.03367     0.03791
  augment    66.57943    64.75088    65.41035     0.03810    -0.02099     0.16180
  Kinetic  4388.02484  4371.72422  4986.94069     0.53247    -0.24198     0.36197
  Fock        0.00000     0.00000     0.00000     0.00000     0.00000     0.00000
  vdW        -1.40675    -1.58425    -0.04008    -0.00134    -0.00028     0.00985
  Total       2.74344    -0.11026    -3.49756     0.09177     0.00386    -0.00756
  in kB       1.54832    -0.06223    -1.97393     0.05179     0.00218    -0.00427

 VOLUME and BASIS-vectors are now :
  energy-cutoff  :      440.00
  volume of cell :     2838.87
      direct lattice vectors                 reciprocal lattice vectors
    14.840819483  0.001624541  0.000000000     0.067377432  0.039207918  0.000000000
    -7.420409742 12.751714014  0.000000000    -0.000008584  0.078415835  0.000000000
     0.000000000  0.000000000 15.000000000     0.000000000  0.000000000  0.066666667

  length of vectors
    14.840819572 14.753599256 15.000000000     0.077954982  0.078415836  0.066666667

 FORCES acting on ions:
    Electron-Ion                     Ewald-Force                    Non-Local-Force
   0.140E+01 0.388E+00 0.763E+01   -.145E+01 -.450E+00 -.765E+01   0.394E-01 0.661E-01 0.234E-01
   -.243E+01 0.764E+00 0.733E+01   0.259E+01 -.749E+00 -.735E+01   -.167E+00 -.229E-01 0.185E-01
   0.575E+00 0.840E+00 0.739E+01   -.609E+00 -.747E+00 -.742E+01   0.397E-01 -.845E-01 0.264E-01
   -.157E+01 0.136E+01 0.738E+01   0.153E+01 -.129E+01 -.739E+01   0.546E-01 -.816E-01 0.110E-01
   0.217E+01 0.125E+01 0.718E+01   -.227E+01 -.131E+01 -.720E+01   0.934E-01 0.577E-01 0.216E-01
   0.568E+01 0.324E+01 0.729E+01   -.617E+01 -.337E+01 -.729E+01   0.482E+00 0.123E+00 0.362E-04
   0.131E+01 0.256E+01 0.743E+01   -.126E+01 -.325E+01 -.746E+01   -.473E-01 0.708E+00 0.245E-01
   0.600E+01 0.104E+02 0.778E+01   -.711E+01 -.113E+02 -.781E+01   0.112E+01 0.904E+00 0.342E-01
   -.465E+01 0.209E+01 0.707E+01   0.474E+01 -.283E+01 -.707E+01   -.837E-01 0.752E+00 -.351E-02
   -.466E+01 0.961E+01 0.705E+01   0.571E+01 -.107E+02 -.707E+01   -.103E+01 0.107E+01 0.177E-01
   0.671E-01 -.239E-01 0.704E+01   -.221E-01 -.232E+00 -.705E+01   -.512E-01 0.261E+00 -.229E-02
   -.375E+01 0.218E+01 0.716E+01   0.416E+01 -.252E+01 -.719E+01   -.423E+00 0.335E+00 0.269E-01
   -.508E+00 0.479E+01 0.718E+01   0.667E+00 -.484E+01 -.719E+01   -.174E+00 0.441E-01 0.119E-01
   -.238E+00 0.225E+01 0.635E+01   0.512E+00 -.232E+01 -.637E+01   -.301E+00 0.546E-01 0.183E-01
   0.204E+01 0.506E+01 0.812E+01   -.198E+01 -.491E+01 -.814E+01   -.685E-01 -.162E+00 0.125E-01
   -.178E+01 0.688E+01 0.101E+02   0.229E+01 -.664E+01 -.102E+02   -.504E+00 -.222E+00 0.980E-01
   0.235E+01 0.737E+01 0.741E+01   -.253E+01 -.696E+01 -.744E+01   0.177E+00 -.421E+00 0.201E-01
   0.126E+01 0.615E+01 0.663E+01   -.145E+01 -.548E+01 -.626E+01   0.190E+00 -.658E+00 -.371E+00
   0.547E+01 0.811E+01 0.893E+01   -.627E+01 -.837E+01 -.896E+01   0.806E+00 0.261E+00 0.258E-01
   0.126E+02 0.572E+01 0.104E+02   -.145E+02 -.580E+01 -.105E+02   0.194E+01 0.983E-01 0.107E+00
   -.156E+01 0.307E+02 0.732E+01   0.153E+01 -.369E+02 -.735E+01   0.388E-01 0.626E+01 0.287E-01
   -.239E+01 0.417E+01 0.876E+01   0.229E+01 -.406E+01 -.887E+01   0.106E+00 -.120E+00 0.111E+00
   -.674E+01 0.652E+01 0.646E+01   0.747E+01 -.700E+01 -.644E+01   -.735E+00 0.468E+00 -.108E-01
   -.109E+02 0.677E+00 0.676E+01   0.122E+02 -.112E+01 -.679E+01   -.134E+01 0.441E+00 0.290E-01
   -.187E+01 0.373E+01 0.589E+01   0.249E+01 -.347E+01 -.587E+01   -.637E+00 -.281E+00 -.235E-01
   -.445E+00 0.217E+01 0.609E+01   0.732E+00 -.201E+01 -.612E+01   -.309E+00 -.151E+00 0.317E-01
   0.373E+01 0.103E+02 0.593E+01   -.339E+01 -.103E+02 -.591E+01   -.361E+00 -.517E-02 -.367E-01
   0.110E+02 0.635E+01 0.384E+01   -.107E+02 -.624E+01 -.394E+01   -.307E+00 -.105E+00 0.814E-01
   -.336E+00 0.183E+02 0.141E+02   0.528E+00 -.173E+02 -.144E+02   -.195E+00 -.954E+00 0.250E+00
   -.720E+01 0.356E+02 0.306E+02   0.134E+02 -.321E+02 -.299E+02   -.625E+01 -.352E+01 -.725E+00
   0.465E+01 0.179E+02 0.112E+02   -.548E+01 -.165E+02 -.113E+02   0.844E+00 -.139E+01 0.185E+00
   0.114E+02 0.316E+02 0.196E+02   -.180E+02 -.277E+02 -.186E+02   0.664E+01 -.391E+01 -.103E+01
   0.192E+02 -.375E+01 0.644E+01   -.247E+02 0.691E+01 -.625E+01   0.556E+01 -.320E+01 -.205E+00
   -.499E+01 -.257E+01 0.658E+01   0.437E+01 0.411E+01 -.669E+01   0.629E+00 -.154E+01 0.106E+00
   -.250E+02 -.100E+02 0.665E+01   0.304E+02 0.131E+02 -.666E+01   -.535E+01 -.310E+01 0.551E-02
   -.105E+02 -.486E+01 0.772E+01   0.108E+02 0.623E+01 -.777E+01   -.242E+00 -.137E+01 0.455E-01
   -.768E+00 -.286E+01 0.747E+01   0.131E+01 0.320E+01 -.749E+01   -.550E+00 -.353E+00 0.235E-01
   -.154E+01 -.190E+01 0.742E+01   0.162E+01 0.211E+01 -.745E+01   -.776E-01 -.196E+00 0.250E-01
   0.444E+01 0.282E+00 0.269E+01   -.420E+01 -.198E+00 -.265E+01   -.235E+00 -.870E-01 -.521E-01
   0.431E+01 -.138E+01 0.281E+01   -.419E+01 0.144E+01 -.277E+01   -.123E+00 -.464E-01 -.474E-01
   0.259E+02 0.881E+01 0.144E+02   -.250E+02 -.926E+01 -.150E+02   -.820E+00 0.463E+00 0.614E+00
   0.255E+02 -.848E+01 0.140E+02   -.247E+02 0.894E+01 -.147E+02   -.788E+00 -.478E+00 0.646E+00
   -.229E+02 0.454E+01 0.124E+02   0.214E+02 -.462E+01 -.128E+02   0.152E+01 0.100E+00 0.424E+00
   -.230E+02 -.944E+01 0.134E+02   0.219E+02 0.100E+02 -.138E+02   0.105E+01 -.631E+00 0.495E+00
   -.494E+01 -.779E+01 0.603E+01   0.486E+01 0.863E+01 -.600E+01   0.862E-01 -.851E+00 -.315E-01
   -.512E+01 -.504E+01 0.575E+01   0.500E+01 0.552E+01 -.573E+01   0.120E+00 -.475E+00 -.330E-01
   -.359E+01 -.620E+01 0.751E+01   0.361E+01 0.637E+01 -.755E+01   -.110E-01 -.168E+00 0.365E-01
   -.189E+01 -.445E+01 0.675E+01   0.185E+01 0.457E+01 -.674E+01   0.496E-01 -.115E+00 -.174E-01
   0.376E+01 -.528E+01 0.633E+01   -.365E+01 0.536E+01 -.637E+01   -.137E+00 -.773E-01 0.415E-01
   0.115E+01 -.260E+01 0.605E+01   -.112E+01 0.265E+01 -.604E+01   -.421E-01 -.327E-01 -.155E-01
   0.124E+02 -.672E+01 0.379E+01   -.121E+02 0.660E+01 -.389E+01   -.280E+00 0.115E+00 0.871E-01
   0.461E+01 -.872E+01 0.580E+01   -.440E+01 0.870E+01 -.578E+01   -.222E+00 0.356E-01 -.373E-01
   -.753E+01 -.358E+02 0.284E+02   0.137E+02 0.323E+02 -.276E+02   -.623E+01 0.349E+01 -.860E+00
   -.156E+01 -.171E+02 0.138E+02   0.186E+01 0.162E+02 -.141E+02   -.296E+00 0.972E+00 0.252E+00
   0.743E+01 -.355E+02 0.242E+02   -.137E+02 0.319E+02 -.233E+02   0.629E+01 0.359E+01 -.908E+00
   0.108E+01 -.162E+02 0.123E+02   -.134E+01 0.151E+02 -.125E+02   0.252E+00 0.103E+01 0.242E+00
   -.112E+02 -.891E+01 0.687E+01   0.108E+02 0.892E+01 -.698E+01   0.397E+00 -.200E-01 0.108E+00
   -.415E+01 -.106E+02 0.706E+01   0.390E+01 0.107E+02 -.702E+01   0.275E+00 -.114E+00 -.451E-01
   -.171E+01 -.409E+01 0.739E+01   0.165E+01 0.415E+01 -.741E+01   0.786E-01 -.468E-01 0.251E-01
   -.184E+01 -.346E+01 0.759E+01   0.186E+01 0.350E+01 -.760E+01   -.103E-01 -.337E-01 0.124E-01
   0.112E+01 -.244E+01 0.694E+01   -.109E+01 0.244E+01 -.697E+01   -.265E-01 -.930E-02 0.310E-01
   0.107E+01 -.178E+01 0.653E+01   -.115E+01 0.176E+01 -.652E+01   0.785E-01 0.256E-01 -.161E-01
   0.280E+01 -.274E+01 0.647E+01   -.278E+01 0.266E+01 -.649E+01   -.457E-01 0.939E-01 0.171E-01
   0.161E+01 -.175E+01 0.725E+01   -.179E+01 0.160E+01 -.727E+01   0.161E+00 0.154E+00 0.161E-01
   -.142E+01 -.667E+01 0.100E+02   0.191E+01 0.623E+01 -.101E+02   -.489E+00 0.414E+00 0.983E-01
   0.165E+01 0.996E-02 0.808E+01   -.159E+01 -.443E+00 -.810E+01   -.734E-01 0.439E+00 0.130E-01
   -.111E+01 -.687E+01 0.712E+01   0.117E+01 0.609E+01 -.675E+01   -.669E-01 0.764E+00 -.373E+00
   0.211E-01 -.423E+01 0.717E+01   0.133E+00 0.367E+01 -.719E+01   -.155E+00 0.583E+00 0.138E-01
   0.119E+01 -.756E+01 0.983E+01   -.172E+01 0.728E+01 -.992E+01   0.539E+00 0.279E+00 0.861E-01
   -.330E+01 -.367E+01 0.822E+01   0.330E+01 0.345E+01 -.825E+01   0.154E-01 0.226E+00 0.188E-01
   -.155E+01 -.918E+00 -.633E+03   0.230E+01 0.101E+01 0.614E+03   -.773E+00 -.869E-01 0.182E+02
   0.355E+00 0.436E+00 -.180E+02   -.293E-13 -.746E-12 0.000E+00   -.354E+00 -.433E+00 0.180E+02

 POSITION                                       TOTAL-FORCE (eV/Angst)
      7.42111     12.75129      7.46549        -0.003343      0.006257      0.001132
      0.00095      1.42067      7.46677        -0.001305     -0.011854     -0.000570
      2.47839      0.02366      7.46258         0.006683      0.012334     -0.000097
      2.47742      1.44477      7.47380         0.011782     -0.010997     -0.003718
      4.94962      0.02287      7.46374        -0.011152      0.004552     -0.001910
      4.95103      1.44588      7.47401        -0.005817     -0.006120     -0.003480
      7.42885      0.00673      7.46670         0.002812      0.006633     -0.000043
      7.42580      1.43392      7.46552         0.007177      0.000088      0.000092
      2.47066     12.73606      7.47510         0.002592      0.009660     -0.002317
      9.89346      1.40923      7.46438         0.012267     -0.006042      0.001317
      4.94592     12.72758      7.47506        -0.003609      0.003685     -0.002521
     12.36485      1.39885      7.46443        -0.008549     -0.004480      0.000797
     13.59986      2.11640      7.46651        -0.011103     -0.005469      0.002073
     -1.24926      3.53147      7.47773        -0.025363     -0.019264     -0.000390
      1.23811      2.14323      7.47675        -0.005282     -0.002515     -0.006551
      1.23635      3.56572      7.50060         0.005227      0.015497     -0.000816
      3.71462      2.17050      7.48977        -0.004597     -0.009912     -0.008671
      3.71887      3.58646      7.53468        -0.001447      0.015489     -0.002505
      6.18556      2.14219      7.47463         0.001243      0.001493     -0.005218
      6.20181      3.56380      7.49950         0.008861      0.007741      0.003829
      8.66440      2.12758      7.46539         0.005631     -0.004020      0.002489
      8.66874      3.53206      7.47374         0.001270     -0.012125     -0.000126
     11.13514      2.10705      7.46310        -0.001044     -0.010257      0.000076
     11.12031      3.52465      7.46462         0.001823     -0.001995      0.000420
     12.35531      4.24162      7.47315        -0.014088     -0.016204      0.001664
     -2.48564      5.65982      7.48064        -0.022510      0.002975      0.003097
     -0.01427      4.24638      7.50320        -0.019822     -0.010556     -0.010602
     -0.03795      5.66122      7.53144         0.004599      0.005056     -0.014187
      2.47519      4.30639      7.54493         0.009736      0.029515      0.021604
      2.42962      5.71851      7.63133        -0.017205      0.000646      0.006808
      4.96373      4.31080      7.55379        -0.008686      0.009588      0.024411
      5.00017      5.72107      7.65351         0.016197     -0.006292      0.005818
      7.44999      4.24036      7.49797         0.027112     -0.021179     -0.005761
      7.47094      5.65270      7.52123         0.005310      0.002000     -0.005798
      9.88997      4.23366      7.46927         0.017184     -0.002352      0.000025
      9.89787      5.65220      7.47359         0.018372     -0.002184      0.000693
     11.13025      6.36771      7.47129        -0.005726     -0.018354      0.004334
     -3.71044      7.78934      7.47121        -0.000106      0.015245      0.004167
     -1.26441      6.37435      7.50911        -0.003049     -0.006084     -0.006276
     -1.26430      7.79436      7.50883        -0.011312      0.009577     -0.006146
      1.18213      6.36809      7.57817         0.012126      0.002816      0.005588
      1.18143      7.80371      7.57938         0.016923     -0.002145      0.009689
      6.24792      6.35800      7.58119        -0.007591      0.006389      0.018469
      6.24437      7.79691      7.57839        -0.013613     -0.003274      0.014807
      8.68890      6.37755      7.49577         0.008923     -0.010001     -0.007435
      8.68708      7.79294      7.49617         0.008647      0.013834     -0.009101
     -4.93267      8.50661      7.47358         0.012142      0.001291     -0.000746
     -4.93967      9.92836      7.46806         0.014861      0.010186      0.000184
     -2.48360      8.50599      7.47994        -0.014918     -0.001139      0.002772
     -2.47662      9.93117      7.47226        -0.017939      0.017801      0.000676
     -0.03670      8.50967      7.53197         0.004850     -0.006522     -0.011885
     -0.01237      9.92603      7.50371        -0.017020      0.013611     -0.008656
      2.42821      8.45577      7.63653        -0.018126      0.007222      0.009796
      2.46984      9.86779      7.54606         0.014387     -0.028350      0.022353
      4.99501      8.44179      7.64424         0.018772      0.009061      0.000495
      4.95080      9.86036      7.54957        -0.013242     -0.018441      0.020496
      7.45933      8.50657      7.52071        -0.001098     -0.003042     -0.007856
      7.43552      9.92278      7.49708         0.020441      0.005234     -0.009282
     -6.17338     10.63663      7.47207         0.020636      0.007890     -0.001650
     -6.17694     12.05695      7.46353         0.008010      0.006551      0.002662
     -3.70634     10.64266      7.46335        -0.001525     -0.001700     -0.000607
     -3.70606     12.06408      7.46193         0.003418      0.008178     -0.002247
     -1.24234     10.64177      7.47734        -0.024531      0.014902     -0.001057
     -1.23709     12.06220      7.46606        -0.010885      0.006603      0.000727
      1.23575     10.60813      7.50138         0.005077     -0.022391      0.000671
      1.23722     12.03331      7.47726        -0.008984      0.003863     -0.004146
      3.71177     10.58809      7.53328        -0.005393     -0.019802     -0.000893
      3.70947     12.00839      7.49041         0.002426      0.006519     -0.007560
      6.18490     10.60243      7.50035         0.002138     -0.006477     -0.000972
      6.18301     12.02764      7.47623         0.010659      0.004234     -0.004143
      3.69444      7.08671      8.32486        -0.010334      0.007325     -0.028293
    total drift:                                0.000573      0.002814     -0.001282

  FREE ENERGIE OF THE ION-ELECTRON SYSTEM (eV)
  free  energy   TOTEN  =      -653.55337531 eV

  energy  without entropy=     -653.52011282  energy(sigma->0) =     -653.53674406

 d Force = 0.1055623E-02[ 0.394E-03, 0.172E-02]  d Energy = 0.1019240E-02 0.364E-04
 d Force =-0.1554995E+01[-0.155E+01,-0.156E+01]  d Ewald  =-0.1554996E+01 0.146E-05

 stress matrix after NEB project (eV)
      2.74344      0.09177     -0.00756
      0.09177     -0.11026      0.00386
     -0.00756      0.00386     -3.49756
  FORCES: max atom, RMS     0.038864    0.018231
  FORCE total and by dimension    0.153613    0.029515
  Stress total and by dimension    4.448431    3.497565
 Conjugate gradient step on ions:
 trial-energy change:   -0.001019  1 .order   -0.001056   -0.001717   -0.000394
  (g-gl).g = 0.930E-03      g.g   = 0.913E-03  gl.gl    = 0.136E-02
 g(Force)  = 0.913E-03   g(Stress)= 0.000E+00 ortho     = 0.172E-04
 gamma     =   0.68275
 trial     =   1.85623
 opt step  =   2.40863  (harmonic =   2.40863) maximal distance =0.00230309
 next E    =  -653.553470   (d E  =  -0.00111)

 reached required accuracy - stopping structural energy minimisation