 vasp.5.4.4.18Apr17-6-g9f103f2a35 (build Jan 14 2022 15:04:31) complex

 executed on             LinuxIFC date 2023.04.05  11:31:12

 INCAR:
 POTCAR:    PAW_PBE C 08Apr2002
 POTCAR:    PAW_PBE N 08Apr2002
 POTCAR:    PAW_PBE Ge_d 03Jul2007
 POTCAR:    PAW_PBE C 08Apr2002
   VRHFIN =C: s2p2

   TITEL  = PAW_PBE C 08Apr2002
   POMASS =   12.011; ZVAL   =    4.000    mass and valenz
   ENMAX  =  400.000; ENMIN  =  300.000 eV

   TITEL  = PAW_PBE N 08Apr2002
   POMASS =   14.001; ZVAL   =    5.000    mass and valenz
   ENMAX  =  400.000; ENMIN  =  300.000 eV

   TITEL  = PAW_PBE Ge_d 03Jul2007
   POMASS =   72.610; ZVAL   =   14.000    mass and valenz
   ENMAX  =  310.294; ENMIN  =  232.720 eV

  PAW_PBE C 08Apr2002                   :
  PAW_PBE N 08Apr2002                   :
  PAW_PBE Ge_d 03Jul2007                :

 POSCAR: POSCAR-c3n4
  positions in cartesian coordinates
 exchange correlation table for  LEXCH =        8
   RHO(1)=    0.500       N(1)  =     2000
   RHO(2)=  100.500       N(2)  =     4000

 VTST: version 3.2, (02/03/18)

 CHAIN: initializing optimizer

 OPT: Using VASP Dynamics algorithm
 CHAIN: Read ICHAIN            0

 POSCAR: POSCAR-c3n4
  positions in cartesian coordinates

 ion  position               nearest neighbor table
   1  0.106  0.214  0.426-  26 1.13  46 1.13  25 1.19   6 1.90  16 1.90   3 2.05   2 2.07
   2  0.288  0.399  0.433-  29 1.11  35 1.16  25 1.20   5 1.92  10 1.96   1 2.07
   3  0.104  0.392  0.427-  44 1.11  39 1.16  25 1.20  17 1.91  12 1.95   1 2.05
   4  0.447  0.064  0.506-  30 1.11  27 1.12  48 1.18  13 1.90   8 1.90  18 2.03  11 2.04
   5  0.453  0.401  0.413-  28 1.12  29 1.12  56 1.20  15 1.90   2 1.92  10 2.05  24 2.07
   6  0.112  0.053  0.449-  26 1.11  31 1.12  32 1.18   9 1.89   1 1.90  16 2.01  23 2.05
   7  0.096  0.712  0.484-  54 1.12  34 1.14  33 1.18  12 1.88  22 1.91   9 2.03
   8  0.284  0.890  0.501-  27 1.12  37 1.13  33 1.19   4 1.90  11 1.91   9 2.07
   9  0.109  0.895  0.498-  31 1.11  52 1.13  33 1.20   6 1.89  23 1.90   7 2.03   8 2.07
  10  0.448  0.548  0.502-  38 1.11  56 1.14  35 1.14  19 1.89   2 1.96  24 1.99   5 2.05  57 2.29

  11  0.445  0.885  0.489-  37 1.12  36 1.12  48 1.16  21 1.91   8 1.91  18 2.04   4 2.04
  12  0.087  0.542  0.481-  34 1.11  40 1.13  39 1.14   7 1.88   3 1.95  22 2.01  17 2.02  57 2.30

  13  0.616  0.223  0.473-  42 1.13  30 1.14  41 1.18   4 1.90  18 1.90  15 2.05
  14  0.780  0.390  0.400-  45 1.13  51 1.14  41 1.18  17 1.89  22 1.89  15 2.05
  15  0.610  0.394  0.435-  28 1.13  55 1.13  41 1.22  24 1.90   5 1.90  13 2.05  14 2.05
  16  0.940  0.052  0.461-  46 1.11  43 1.12  32 1.17  20 1.89   1 1.90   6 2.01  23 2.04
  17  0.941  0.387  0.394-  45 1.11  44 1.13  40 1.19  14 1.89   3 1.91  12 2.02  22 2.05
  18  0.623  0.066  0.512-  42 1.12  47 1.13  48 1.18  13 1.90  21 1.90   4 2.03  11 2.04
  19  0.613  0.711  0.531-  50 1.11  38 1.15  49 1.18  10 1.89  24 1.91  20 2.05
  20  0.790  0.897  0.523-  43 1.11  53 1.13  49 1.21  16 1.89  23 1.89  19 2.05  21 2.07
  21  0.609  0.892  0.521-  47 1.12  36 1.13  49 1.21  18 1.90  11 1.91  20 2.07
  22  0.938  0.563  0.421-  51 1.10  54 1.13  40 1.19  14 1.89   7 1.91  12 2.01  17 2.05
  23  0.954  0.902  0.535-  52 1.13  53 1.13  32 1.17  20 1.89   9 1.90  16 2.04   6 2.05
  24  0.621  0.555  0.490-  55 1.11  50 1.12  56 1.19  15 1.90  19 1.91  10 1.99   5 2.07
  25  0.167  0.335  0.425-   1 1.19   3 1.20   2 1.20
  26  0.165  0.161  0.421-   6 1.11   1 1.13
  27  0.336  0.002  0.522-   8 1.12   4 1.12
  28  0.512  0.352  0.392-   5 1.12  15 1.13
  29  0.345  0.361  0.390-   2 1.11   5 1.12
  30  0.506  0.177  0.493-   4 1.11  13 1.14
  31  0.159  0.988  0.447-   9 1.11   6 1.12
  32  0.002  0.002  0.483-  16 1.17  23 1.17   6 1.18
  33  0.165  0.831  0.500-   7 1.18   8 1.19   9 1.20
  34  0.134  0.645  0.518-  12 1.11   7 1.14  57 2.21
  35  0.334  0.491  0.492-  10 1.14   2 1.16  57 1.73
  36  0.503  0.831  0.490-  11 1.12  21 1.13
  37  0.333  0.829  0.479-  11 1.12   8 1.13
  38  0.499  0.648  0.545-  10 1.11  19 1.15  57 2.21
  39  0.142  0.484  0.485-  12 1.14   3 1.16  57 1.75
  40  0.988  0.496  0.436-  12 1.13  22 1.19  17 1.19
  41  0.667  0.330  0.429-  13 1.18  14 1.18  15 1.22
  42  0.680  0.178  0.495-  18 1.12  13 1.13
  43  0.827  0.986  0.468-  20 1.11  16 1.12
  44  0.011  0.348  0.379-   3 1.11  17 1.13
  45  0.830  0.330  0.380-  17 1.11  14 1.13
  46  0.993  0.161  0.435-  16 1.11   1 1.13
  47  0.669  0.005  0.539-  21 1.12  18 1.13
  48  0.505  0.004  0.498-  11 1.16  18 1.18   4 1.18
  49  0.668  0.832  0.534-  19 1.18  21 1.21  20 1.21
  50  0.675  0.666  0.512-  19 1.11  24 1.12
  51  0.832  0.507  0.396-  22 1.10  14 1.14
  52  0.016  0.853  0.549-  23 1.13   9 1.13
  53  0.849  0.860  0.566-  20 1.13  23 1.13
  54  0.004  0.677  0.435-   7 1.12  22 1.13
  55  0.668  0.491  0.484-  24 1.11  15 1.13
  56  0.506  0.502  0.467-  10 1.14  24 1.19   5 1.20
  57  0.287  0.593  0.558-  35 1.73  39 1.75  34 2.21  38 2.21  10 2.29  12 2.30

IMPORTANT INFORMATION: All symmetrisations will be switched off!
NOSYMM: (Re-)initialisation of all symmetry stuff for point group C_1.

 KPOINTS: K-Points

Automatic generation of k-mesh.
Space group operators:
 irot       det(A)        alpha          n_x          n_y          n_z        tau_x        tau_y        tau_z
    1     1.000000     0.000000     1.000000     0.000000     0.000000     0.000000     0.000000     0.000000

 Subroutine IBZKPT returns following result:

 Found      5 irreducible k-points:

 Following reciprocal coordinates:
            Coordinates               Weight
  0.000000  0.000000  0.000000      1.000000
  0.333333  0.000000  0.000000      2.000000
 -0.000000  0.333333  0.000000      2.000000
  0.333333  0.333333  0.000000      2.000000
 -0.333333  0.333333  0.000000      2.000000

 Following cartesian coordinates:
            Coordinates               Weight
  0.000000  0.000000  0.000000      1.000000
  0.024277  0.014368  0.000000      2.000000
  0.000396  0.028736  0.000000      2.000000
  0.024673  0.043104  0.000000      2.000000
 -0.023881  0.014368  0.000000      2.000000

 TETIRR: Found     24 inequivalent tetrahedra from       54

 SYSTEM =  unknown system
 POSCAR =  POSCAR-c3n4

 Startparameter for this run:
   NWRITE =      2    write-flag & timer
   PREC   = normal    normal or accurate (medium, high low for compatibility)
   ISTART =      0    job   : 0-new  1-cont  2-samecut
   ICHARG =      2    charge: 1-file 2-atom 10-const
   ISPIN  =      2    spin polarized calculation?
   LNONCOLLINEAR =      F non collinear calculations
   LSORBIT =      F    spin-orbit coupling
   INIWAV =      1    electr: 0-lowe 1-rand  2-diag
   LASPH  =      F    aspherical Exc in radial PAW
   METAGGA=      F    non-selfconsistent MetaGGA calc.

 Electronic Relaxation 1
   ENCUT  =  440.0 eV  32.34 Ry    5.69 a.u.  19.89 19.52 21.55*2*pi/ulx,y,z
   ENINI  =  440.0     initial cutoff
   ENAUG  =  644.9 eV  augmentation charge cutoff
   NELM   =    100;   NELMIN=  2; NELMDL= -5     # of ELM steps
   EDIFF  = 0.1E-03   stopping-criterion for ELM
   LREAL  =      F    real-space projection
   NLSPLINE    = F    spline interpolate recip. space projectors
   LCOMPAT=      F    compatible to vasp.4.4
   GGA_COMPAT  = T    GGA compatible to vasp.4.4-vasp.4.6
   LMAXPAW     = -100 max onsite density
   LMAXMIX     =    2 max onsite mixed and CHGCAR
   VOSKOWN=      0    Vosko Wilk Nusair interpolation
   ROPT   =    0.00000   0.00000   0.00000
 Ionic relaxation
   EDIFFG = -.1E-01   stopping-criterion for IOM
   NSW    =      0    number of steps for IOM
   NBLOCK =      1;   KBLOCK =      1    inner block; outer block
   IBRION =     -1    ionic relax: 0-MD 1-quasi-New 2-CG
   NFREE  =      0    steps in history (QN), initial steepest desc. (CG)
   ISIF   =      2    stress and relaxation
   IWAVPR =     10    prediction:  0-non 1-charg 2-wave 3-comb
   ISYM   =      0    0-nonsym 1-usesym 2-fastsym
   LCORR  =      T    Harris-Foulkes like correction to forces

   POTIM  = 0.5000    time-step for ionic-motion
   TEIN   =    0.0    initial temperature
   TEBEG  =    0.0;   TEEND  =   0.0 temperature during run
   SMASS  =  -3.00    Nose mass-parameter (am)
   estimated Nose-frequenzy (Omega)   =  0.10E-29 period in steps =****** mass=  -0.309E-26a.u.
   SCALEE = 1.0000    scale energy and forces
   NPACO  =    256;   APACO  = 16.0  distance and # of slots for P.C.
   PSTRESS=    0.0 pullay stress

  Mass of Ions in am
   POMASS =  12.01 14.00 72.61
  Ionic Valenz
   ZVAL   =   4.00  5.00 14.00
  Atomic Wigner-Seitz radii
  virtual crystal weights
   VCA    =   1.00  1.00  1.00
   NELECT =     270.0000    total number of electrons
   NUPDOWN=      -1.0000    fix difference up-down

 DOS related values:
   EMIN   = -14.00;   EMAX   =  6.00  energy-range for DOS
   EFERMI =   0.00
   ISMEAR =    -5;   SIGMA  =   0.20  broadening in eV -4-tet -1-fermi 0-gaus

 Electronic relaxation 2 (details)
   IALGO  =     38    algorithm
   LDIAG  =      T    sub-space diagonalisation (order eigenvalues)
   LSUBROT=      F    optimize rotation matrix (better conditioning)
   TURBO    =      0    0=normal 1=particle mesh
   IRESTART =      0    0=no restart 2=restart with 2 vectors
   NREBOOT  =      0    no. of reboots
   NMIN     =      0    reboot dimension
   EREF     =   0.00    reference energy to select bands
   IMIX   =      4    mixing-type and parameters
     AMIX     =   0.25;   BMIX     =  0.00
     AMIX_MAG =   1.00;   BMIX_MAG =  0.00
     AMIN     =   0.10
     WC   =   100.;   INIMIX=   1;  MIXPRE=   1;  MAXMIX= -45

 Intra band minimization:
   WEIMIN = 0.0000     energy-eigenvalue tresh-hold
   EBREAK =  0.15E-06  absolut break condition
   DEPER  =   0.30     relativ break condition

   TIME   =   0.40     timestep for ELM

  volume/ion in A,a.u.               =      25.05       169.02
  Fermi-wavevector in a.u.,A,eV,Ry     =   0.939698  1.775771 12.014374  0.883032
  Thomas-Fermi vector in A             =   2.067036

 Write flags
   LWAVE        =      F    write WAVECAR
   LDOWNSAMPLE  =      F    k-point downsampling of WAVECAR
   LCHARG       =      F    write CHGCAR
   LVTOT        =      F    write LOCPOT, total local potential
   LVHAR        =      F    write LOCPOT, Hartree potential only
   LELF         =      F    write electronic localiz. function (ELF)
   LORBIT       =     11    0 simple, 1 ext, 2 COOP (PROOUT), +10 PAW based schemes

 Dipole corrections
   LMONO  =      F    monopole corrections only (constant potential shift)
   LDIPOL =      F    correct potential (dipole corrections)
   IDIPOL =      0    1-x, 2-y, 3-z, 4-all directions
   EPSILON=  1.0000000 bulk dielectric constant

 Exchange correlation treatment:
   GGA     =    --    GGA type
   VOSKOWN=      0    Vosko Wilk Nusair interpolation
   LHFCALC =     F    Hartree Fock is set to
   LHFONE  =     F    Hartree Fock one center treatment
   AEXX    =    0.0000 exact exchange contribution

 Linear response parameters
   LEPSILON=     F    determine dielectric tensor
   LRPA    =     F    only Hartree local field effects (RPA)
   LNABLA  =     F    use nabla operator in PAW spheres
[...]
  Kinetic  5325.12937  5361.02341  5593.80738     7.71152   -26.72620   -10.75894
  Fock        0.00000     0.00000     0.00000     0.00000     0.00000     0.00000
  vdW        -5.08376    -4.93707    -0.61043     0.00576    -0.02487    -0.00879
  Total     931.36827   835.46210   189.33666   -16.68612    46.71784    25.61728
  in kB    1045.22093   937.59096   212.48162   -18.72587    52.42874    28.74880

 VOLUME and BASIS-vectors are now :
  energy-cutoff  :      440.00
  volume of cell :     1427.66
      direct lattice vectors                 reciprocal lattice vectors
    11.628476357 -0.160221998  0.000000000     0.086702821  0.051314422  0.000000000
    -5.814238179  9.823960435  0.000000000     0.001414063  0.102628844  0.000000000
     0.000000000  0.000000000 12.600000000     0.000000000  0.000000000  0.079365079

  length of vectors
    11.629580107 11.415584270 12.600000000     0.100749933  0.102638585  0.079365079

 FORCES acting on ions
    electron-ion (+dipol)            ewald-force                    non-local-force                 convergence-correction
   -.738E+01 0.173E+02 0.155E+03   0.761E+01 -.146E+02 -.156E+03   -.242E+00 0.416E+01 -.144E+01   -.121E-02 -.130E-01 0.273E-02
   -.570E+01 0.386E+02 0.170E+03   0.148E+01 -.390E+02 -.171E+03   -.376E+01 0.121E+01 0.291E+00   0.143E-01 -.138E-01 -.611E-02
   -.124E+02 0.418E+02 0.169E+03   0.168E+02 -.421E+02 -.169E+03   0.336E+01 0.114E+01 0.688E+00   -.116E-01 -.179E-01 -.801E-02
   0.921E+02 -.757E+02 -.115E+03   -.958E+02 0.767E+02 0.116E+03   0.396E+01 -.208E+01 -.484E+00   0.212E-01 -.737E-02 -.109E-02
   -.193E+02 0.726E+02 0.265E+03   0.191E+02 -.748E+02 -.269E+03   -.345E+00 0.432E+01 0.267E+01   0.121E-01 0.441E-02 0.502E-02
   -.860E+02 -.251E+02 0.127E+03   0.895E+02 0.262E+02 -.130E+03   -.389E+01 -.200E+01 0.163E+01   -.100E-01 -.569E-02 0.410E-02
   0.548E+02 -.326E+02 -.424E+02   -.542E+02 0.353E+02 0.450E+02   0.871E+00 0.273E+01 0.871E+00   -.114E-01 0.814E-02 -.373E-02
   0.297E+02 -.247E+02 -.649E+02   -.318E+02 0.221E+02 0.651E+02   -.312E+01 -.222E+01 0.623E+00   0.843E-03 0.906E-02 0.695E-02
   -.596E+01 -.516E+01 -.786E+02   0.809E+01 0.216E+01 0.796E+02   0.356E+01 -.170E+01 0.381E+00   0.118E-02 0.123E-02 -.249E-02
   -.334E+02 0.224E+02 -.957E+02   0.307E+02 -.217E+02 0.977E+02   0.123E+01 -.208E+01 -.149E+01   0.283E-01 0.899E-02 0.521E-02
   -.448E+01 0.287E+02 0.620E+02   0.456E+01 -.335E+02 -.628E+02   0.101E+00 0.419E+01 -.622E+00   0.775E-02 0.258E-01 0.167E-01
   0.438E+02 0.199E+02 -.850E+02   -.411E+02 -.194E+02 0.881E+02   -.132E+01 -.260E+01 -.970E+00   -.190E-01 -.105E-03 -.613E-02
   -.485E+01 -.178E+02 -.218E+02   0.545E+01 0.192E+02 0.198E+02   -.270E+00 0.404E+01 -.851E+00   0.105E-02 -.692E-02 -.188E-02
   0.465E+02 0.363E+02 0.256E+03   -.490E+02 -.375E+02 -.257E+03   -.355E+01 -.142E+01 -.118E+01   -.598E-03 -.138E-02 0.855E-02
   -.124E+02 0.261E+02 0.115E+03   0.151E+02 -.293E+02 -.116E+03   0.366E+01 -.132E+01 -.509E+00   -.540E-03 0.248E-02 0.275E-02
   0.890E+02 -.238E+02 0.875E+02   -.927E+02 0.246E+02 -.889E+02   0.393E+01 -.210E+01 0.863E+00   0.472E-02 -.113E-01 0.611E-02
   0.499E+01 0.102E+03 0.284E+03   -.322E+01 -.105E+03 -.288E+03   -.264E+00 0.407E+01 0.241E+01   -.110E-01 -.871E-03 0.348E-02
   -.876E+02 -.796E+02 -.131E+03   0.917E+02 0.810E+02 0.132E+03   -.386E+01 -.197E+01 -.677E+00   -.144E-01 -.121E-01 -.172E-02
   -.470E+02 -.307E+02 -.186E+03   0.448E+02 0.345E+02 0.188E+03   -.433E+00 0.275E+01 0.851E+00   0.101E-01 0.831E-02 0.945E-03
   0.981E+01 -.704E+01 -.143E+03   -.127E+02 0.411E+01 0.146E+03   -.364E+01 -.161E+01 0.603E+00   -.103E-01 -.396E-02 -.197E-02
   -.327E+02 -.191E+02 -.117E+03   0.356E+02 0.164E+02 0.118E+03   0.300E+01 -.235E+01 0.130E+01   0.615E-02 0.419E-02 0.727E-02
   0.995E+02 -.927E+02 0.184E+03   -.101E+03 0.976E+02 -.185E+03   0.379E+01 -.303E+01 0.476E+00   -.268E-02 -.567E-02 0.437E-02
   -.143E+02 0.589E+02 -.250E+03   0.144E+02 -.630E+02 0.254E+03   -.946E-01 0.447E+01 -.197E+01   -.751E-02 0.886E-02 -.122E-01
   -.115E+03 -.342E+02 -.800E+02   0.117E+03 0.360E+02 0.822E+02   -.430E+01 -.154E+01 -.159E+01   -.755E-02 0.184E-02 0.658E-03
   -.188E+02 0.502E+02 0.224E+03   0.197E+02 -.506E+02 -.230E+03   -.324E+00 0.170E+01 0.347E+01   -.113E-01 -.234E-01 -.938E-03
   -.261E+03 -.423E+02 0.298E+03   0.310E+03 0.690E+02 -.320E+03   -.326E+02 -.166E+02 0.134E+02   -.111E-01 -.175E-01 0.640E-02
   0.210E+03 -.205E+03 -.315E+03   -.258E+03 0.232E+03 0.336E+03   0.316E+02 -.171E+02 -.106E+02   0.230E-01 -.803E-02 -.308E-02
   0.737E+01 0.230E+03 0.525E+03   -.331E+01 -.275E+03 -.563E+03   -.151E+01 0.297E+02 0.225E+02   0.122E-01 0.856E-02 0.102E-01
   -.477E+02 0.187E+03 0.555E+03   0.455E+02 -.229E+03 -.598E+03   0.145E+01 0.286E+02 0.260E+02   0.228E-01 -.647E-02 -.486E-02
   0.260E+03 -.131E+03 -.149E+03   -.307E+03 0.164E+03 0.152E+03   0.306E+02 -.194E+02 -.191E-01   0.264E-01 -.138E-01 -.357E-02
   -.196E+03 -.108E+03 0.335E+03   0.243E+03 0.123E+03 -.369E+03   -.311E+02 -.107E+02 0.199E+02   -.967E-02 -.736E-02 0.103E-01
   -.588E+01 -.277E+01 -.321E+02   0.642E+01 0.234E+01 0.340E+02   -.215E+00 0.226E+00 -.107E+01   -.520E-02 -.268E-02 -.332E-02
   0.214E+02 -.297E+02 -.129E+03   -.214E+02 0.310E+02 0.136E+03   0.296E+00 -.795E+00 -.414E+01   -.167E-02 0.510E-02 0.229E-02
   -.210E+01 -.798E+02 -.401E+03   0.356E+02 0.102E+03 0.442E+03   -.231E+02 -.145E+02 -.244E+02   -.150E-01 0.154E-01 -.239E-02
   0.950E+01 0.897E+02 -.101E+03   -.415E+02 -.848E+02 0.117E+03   0.194E+02 -.406E+01 -.107E+02   0.148E-01 0.137E-01 0.182E-01
   -.213E+02 0.152E+03 0.163E+03   0.260E+02 -.206E+03 -.181E+03   -.211E+01 0.345E+02 0.971E+01   0.129E-01 0.236E-01 0.235E-01
   -.117E+01 0.148E+03 0.183E+03   -.224E+01 -.201E+03 -.201E+03   0.136E+01 0.344E+02 0.979E+01   0.371E-02 0.246E-01 0.206E-01
   0.544E+02 -.780E+02 -.440E+03   -.952E+02 0.101E+03 0.473E+03   0.278E+02 -.149E+02 -.183E+02   0.199E-01 0.150E-01 0.853E-02
   -.105E+01 0.102E+03 -.141E+03   0.302E+02 -.985E+02 0.165E+03   -.178E+02 -.345E+01 -.145E+02   -.112E-01 -.427E-02 0.161E-02
   0.643E+02 0.232E+02 0.100E+03   -.722E+02 -.286E+02 -.101E+03   0.387E+01 0.280E+01 -.246E+00   -.246E-01 -.597E-02 -.749E-02
   0.186E+02 0.525E+02 0.199E+03   -.222E+02 -.550E+02 -.206E+03   0.212E+01 0.169E+01 0.406E+01   0.204E-02 -.201E-02 0.515E-02
   -.256E+03 -.139E+03 -.163E+03   0.304E+03 0.170E+03 0.166E+03   -.307E+02 -.183E+02 -.111E+01   -.231E-01 -.178E-01 -.324E-02
   0.200E+03 -.917E+02 0.259E+03   -.250E+03 0.107E+03 -.289E+03   0.322E+02 -.104E+02 0.167E+02   0.280E-03 -.168E-01 0.168E-01
   0.128E+02 0.216E+03 0.574E+03   -.683E+01 -.260E+03 -.614E+03   -.404E+01 0.297E+02 0.232E+02   -.129E-01 -.369E-02 0.565E-02
   0.290E+01 0.316E+03 0.478E+03   -.607E+01 -.371E+03 -.499E+03   0.433E+00 0.344E+02 0.109E+02   -.111E-01 0.106E-01 0.123E-01
   0.262E+03 -.437E+02 0.181E+03   -.313E+03 0.725E+02 -.192E+03   0.329E+02 -.177E+02 0.683E+01   0.792E-02 -.150E-01 0.555E-02
   -.191E+03 -.211E+03 -.388E+03   0.237E+03 0.238E+03 0.413E+03   -.303E+02 -.168E+02 -.136E+02   -.175E-01 -.199E-01 -.804E-02
   0.105E+01 -.434E+02 -.178E+02   -.922E+00 0.456E+02 0.138E+02   -.174E+00 -.120E+01 0.203E+01   0.734E-02 0.847E-02 0.109E-01
   -.208E+02 -.336E+02 -.252E+03   0.200E+02 0.370E+02 0.262E+03   0.180E+00 -.216E+01 -.559E+01   -.154E-02 0.460E-02 0.167E-02
   -.300E+03 -.870E+02 -.124E+03   0.350E+03 0.116E+03 0.126E+03   -.316E+02 -.185E+02 -.167E+01   -.149E-01 -.390E-02 0.233E-02
   0.237E+03 -.200E+03 0.405E+03   -.287E+03 0.224E+03 -.420E+03   0.311E+02 -.173E+02 0.653E+01   0.414E-02 -.153E-01 0.127E-01
   0.305E+00 0.199E+03 -.511E+03   0.685E+01 -.244E+03 0.549E+03   -.393E+01 0.292E+02 -.230E+02   0.277E-02 0.872E-02 -.146E-01
   -.470E+02 0.154E+03 -.574E+03   0.451E+02 -.194E+03 0.618E+03   0.872E+00 0.281E+02 -.267E+02   -.219E-01 0.576E-02 -.186E-01
   0.252E+03 -.171E+03 0.314E+03   -.291E+03 0.207E+03 -.335E+03   0.250E+02 -.226E+02 0.119E+02   0.191E-02 -.242E-02 0.695E-02
   -.224E+03 -.994E+02 -.245E+03   0.276E+03 0.113E+03 0.270E+03   -.325E+02 -.105E+02 -.142E+02   -.136E-01 -.300E-02 -.472E-02
   -.608E+02 0.270E+02 0.581E+02   0.664E+02 -.316E+02 -.631E+02   -.250E+01 0.216E+01 0.205E+01   0.301E-01 0.128E-01 0.721E-02
   0.618E+02 -.152E+03 -.133E+04   -.640E+02 0.178E+03 0.137E+04   0.159E+01 -.198E+02 -.291E+02   0.418E-01 0.426E-01 0.236E-01
   0.299E+01 -.523E+01 0.773E+01   -.284E-13 0.739E-12 -.909E-12   -.303E+01 0.523E+01 -.792E+01   0.274E-01 -.675E-02 0.167E+00

 POSITION                                       TOTAL-FORCE (eV/Angst)
     -0.01256      2.08067      5.37345        -0.009587      6.843745     -2.327976
      1.02531      3.87039      5.45779        -7.962708      0.817505     -0.032543
     -1.07091      3.83213      5.38382         7.759197      0.884433      0.846115
      4.83057      0.55548      6.37174         0.275304     -1.018643      1.392688
      2.92997      3.86934      5.19782        -0.623490      2.146848     -0.864250
      0.99616      0.50016      5.65338        -0.407211     -0.930369     -0.385472
     -3.01846      6.97834      6.09716         1.495500      5.413213      3.380324
     -1.86861      8.69839      6.31514        -5.240147     -4.836395      0.808354
     -3.93360      8.77859      6.27638         5.690986     -4.704530      1.413796
      2.02091      5.31442      6.32399        -1.456791     -1.438742      0.484196
      0.03311      8.62482      6.16102         0.192343     -0.571364     -1.452333
     -2.14131      5.31169      6.05646         1.287694     -2.112500      2.151895
      5.86871      2.09130      5.95608         0.328412      5.452604     -2.928610
      6.80726      3.70322      5.03852        -6.110700     -2.644350     -1.426935
      4.80507      3.77602      5.48682         6.367727     -4.480549     -1.083624
     10.62107      0.36324      5.80482         0.182546     -1.294837     -0.515169
      8.69175      3.64652      4.96289         1.499840      1.645789     -1.564899
      6.86072      0.54448      6.45160         0.182832     -0.512025      1.186682
      2.99592      6.88840      6.69373        -2.578592      6.531400      3.279263
      3.96778      8.68822      6.58829        -6.519463     -4.532827      3.370129
      1.89779      8.67007      6.56872         5.953560     -5.098852      2.357069
      7.63878      5.37892      5.29842         2.581550      1.839396     -0.379834
      5.85495      8.70554      6.73677         0.012046      0.356029      1.750469
      3.99994      5.34936      6.17224        -1.952360      0.285920      0.656443
     -0.01206      3.26876      5.35536         0.616565      1.330403     -1.579128
      0.97975      1.55497      5.30400        16.863118      9.965299     -8.080343
      3.89975     -0.03613      6.57919       -16.596536      9.409218     10.242134
      3.90162      3.38064      4.94407         2.559334    -15.826950    -15.645955
      1.91108      3.48872      4.91089        -0.715375    -13.059260    -17.013233
      4.85245      1.65522      6.21371       -16.682726     13.638627      2.497611
     -3.89993      9.68279      5.62787        16.628373      4.953361    -13.963001
      0.01413      0.01797      6.08381         0.319587     -0.204442      0.885094
     -2.91629      8.13567      6.30327         0.349558      0.497191      3.042171
     -2.19344      6.31762      6.52413        10.420790      7.987809     16.803605
      1.02484      4.77169      6.19354       -12.588225      0.857341      6.111072
      1.01741      8.08099      6.17052         2.577819    -19.028235     -8.136325
     -0.94878      8.09392      6.04011        -2.048938    -18.987246     -8.158886
      2.03505      6.28629      6.86491       -12.936666      8.346510     14.611681
     -1.16385      4.72861      6.11246        11.366395      0.294073      9.423137
      8.60992      4.71389      5.49345        -4.067575     -2.640054     -0.700988
      5.84084      3.13649      5.40940        -1.490036     -0.774322     -3.415664
      6.86884      1.63997      6.24000        17.149659     13.104185      1.669408
      3.88495      9.55610      5.89490       -17.360165      4.424160    -12.957677
     -1.89635      3.41796      4.77291         1.957768    -13.779528    -17.049337
      7.73755      3.11047      4.78206        -2.747662    -20.481831     -9.288592
     10.61043      1.42275      5.48265       -17.503938     11.077420     -4.144715
      7.74742     -0.05565      6.79746        15.207347      9.575734     11.982747
      5.84805     -0.04274      6.27870        -0.039317      1.058410     -1.979283
      2.93230      8.06917      6.73091        -0.651800      1.284444      4.164815
      3.98400      6.42978      6.45705        18.323468     10.265351      0.370139
      6.73032      4.84417      4.98641       -19.326160      7.272844     -9.312699
     -4.77528      8.37725      6.91333         3.222233    -15.394012     15.291932
      4.87769      8.30826      7.13223        -1.076279    -12.474859     18.070778
     -3.88845      6.65273      5.47539       -14.612212     12.835565     -9.671195
      4.90597      4.71934      6.09614        19.425181      3.018581     10.423218
      2.96244      4.84861      5.88623         3.123846     -2.415579     -2.920785
     -0.11251      5.77850      7.02821        -0.615918      5.828889      8.312488
    total drift:                               -0.012866     -0.002931     -0.018708

  FREE ENERGIE OF THE ION-ELECTRON SYSTEM (eV)
  free  energy   TOTEN  =      -330.28029266 eV

  energy  without entropy=     -330.28029266  energy(sigma->0) =     -330.28029266

 stress matrix after NEB project (eV)
    931.36827    -16.68612     25.61728
    -16.68612    835.46210     46.71784
     25.61728     46.71784    189.33666
  FORCES: max atom, RMS    22.656853   14.342857
  FORCE total and by dimension  108.286194   20.481831
  Stress total and by dimension 1267.882727  931.368274

 total charge

[...]

 magnetization (x)

# of ion       s       p       d       tot
    1       -0.000  -0.000   0.000  -0.000
    2        0.000   0.000   0.000   0.000
    3       -0.000  -0.000   0.000  -0.000
    4       -0.000  -0.000   0.000  -0.000
    5        0.000   0.000   0.000   0.000
    6       -0.000  -0.000   0.000  -0.000
    7       -0.000  -0.000   0.000  -0.000
    8       -0.000  -0.000   0.000  -0.000
    9       -0.000   0.000   0.000   0.000
   10       -0.000   0.000   0.000  -0.000
   11       -0.000  -0.000   0.000  -0.000
   12        0.000   0.000   0.000   0.000
   13        0.000  -0.000   0.000  -0.000
   14       -0.000  -0.000   0.000  -0.000
   15        0.000   0.000   0.000   0.000
   16       -0.000   0.000   0.000   0.000
   17       -0.000  -0.000   0.000  -0.000
   18        0.000   0.000   0.000   0.000
   19        0.000   0.000   0.000   0.000
   20       -0.000  -0.000   0.000  -0.000
   21        0.000   0.000   0.000   0.000
   22       -0.000  -0.000   0.000  -0.000
   23       -0.000  -0.000   0.000  -0.000
   24        0.000   0.000   0.000   0.000
   25       -0.000   0.000   0.000  -0.000
   26       -0.000  -0.000   0.000  -0.000
   27        0.000  -0.000   0.000  -0.000
   28        0.000  -0.000   0.000   0.000
   29       -0.000  -0.000   0.000  -0.000
   30        0.000   0.000   0.000   0.000
   31       -0.000  -0.000   0.000  -0.000
   32        0.000   0.000   0.000   0.000
   33       -0.000   0.000   0.000   0.000
   34       -0.000   0.000   0.000   0.000
   35       -0.000  -0.000   0.000  -0.000
   36        0.000   0.000   0.000   0.000
   37        0.000   0.000   0.000   0.000
   38       -0.000   0.000   0.000   0.000
   39       -0.000  -0.000   0.000  -0.000
   40        0.000  -0.000   0.000  -0.000
   41        0.000   0.000   0.000   0.000
   42        0.000   0.000   0.000   0.000
   43       -0.000  -0.000   0.000  -0.000
   44       -0.000  -0.000   0.000  -0.000
   45        0.000   0.000   0.000   0.000
   46       -0.000  -0.000   0.000  -0.000
   47       -0.000  -0.000   0.000  -0.000
   48       -0.000  -0.000   0.000  -0.000
   49        0.000  -0.000   0.000  -0.000
   50        0.000  -0.000   0.000  -0.000
   51       -0.000  -0.000   0.000  -0.000
   52       -0.000  -0.000   0.000  -0.000
   53        0.000  -0.000   0.000  -0.000
   54        0.000  -0.000   0.000   0.000
   55        0.000  -0.000   0.000  -0.000
   56        0.000   0.000   0.000   0.000
   57        0.000   0.000   0.000   0.000
tot          0.000  -0.000   0.000  -0.000

 BZINTS: Fermi energy:  0.344836;270.000000 electrons
         Band energy:***********;  BLOECHL correction:  0.000000