 vasp.5.4.4.18Apr17-6-g9f103f2a35 (build Sep 02 2021 13:24:58) complex

 executed on             LinuxIFC date 2023.01.15  13:02:12

 INCAR:
 POTCAR:    PAW_PBE C 08Apr2002
 POTCAR:    PAW_PBE N 08Apr2002
 POTCAR:    PAW_PBE C 08Apr2002
 POTCAR:    PAW_PBE Cr_pv 02Aug2007
 POTCAR:    PAW_PBE C 08Apr2002
   VRHFIN =C: s2p2

   TITEL  = PAW_PBE C 08Apr2002
   POMASS =   12.011; ZVAL   =    4.000    mass and valenz
   ENMAX  =  400.000; ENMIN  =  300.000 eV

[...]

   TITEL  = PAW_PBE C 08Apr2002
   POMASS =   12.011; ZVAL   =    4.000    mass and valenz
   ENMAX  =  400.000; ENMIN  =  300.000 eV

   TITEL  = PAW_PBE Cr_pv 02Aug2007
   POMASS =   51.996; ZVAL   =   12.000    mass and valenz
   ENMAX  =  265.681; ENMIN  =  199.261 eV

 Optimization of the real space projectors (new method)

 maximal supplied QI-value         = 25.13
 optimisation between [QCUT,QGAM] = [ 11.81, 23.88] = [ 39.08,159.64] Ry
 Optimized for a Real-space Cutoff    1.18 Angstroem

   l    n(q)    QCUT    max X(q) W(low)/X(q) W(high)/X(q)  e(spline)
   0      8    11.813   115.676    0.10E-03    0.16E-03    0.35E-06
   0      8    11.813    87.132    0.10E-03    0.16E-03    0.35E-06
   1      8    11.813     4.429    0.16E-03    0.13E-04    0.22E-06
   1      8    11.813     2.733    0.13E-03    0.10E-04    0.18E-06
 Optimization of the real space projectors (new method)

[...]

   l    n(q)    QCUT    max X(q) W(low)/X(q) W(high)/X(q)  e(spline)
   0      8    11.813   115.676    0.10E-03    0.16E-03    0.35E-06
   0      8    11.813    87.132    0.10E-03    0.16E-03    0.35E-06
   1      8    11.813     4.429    0.16E-03    0.13E-04    0.22E-06
   1      8    11.813     2.733    0.13E-03    0.10E-04    0.18E-06
 Optimization of the real space projectors (new method)

 maximal supplied QI-value         = 16.25
 optimisation between [QCUT,QGAM] = [ 11.86, 23.89] = [ 39.41,159.82] Ry
 Optimized for a Real-space Cutoff    1.33 Angstroem

   l    n(q)    QCUT    max X(q) W(low)/X(q) W(high)/X(q)  e(spline)
   1      9    11.864     3.262    0.48E-04    0.16E-03    0.14E-06
   1      9    11.864     5.741    0.74E-04    0.40E-03    0.35E-06
   2      9    11.864    60.438    0.17E-03    0.21E-03    0.26E-06
   2      9    11.864    55.380    0.17E-03    0.21E-03    0.27E-06
   0      9    11.864    80.273    0.40E-04    0.47E-04    0.12E-06
   0      9    11.864    36.654    0.35E-04    0.41E-04    0.11E-06
  PAW_PBE C 08Apr2002                   :
  PAW_PBE N 08Apr2002                   :
  PAW_PBE C 08Apr2002                   :
  PAW_PBE Cr_pv 02Aug2007               :

 POSCAR: POSCAR-clean
  positions in cartesian coordinates
 exchange correlation table for  LEXCH =        8
   RHO(1)=    0.500       N(1)  =     2000
   RHO(2)=  100.500       N(2)  =     4000

 ion  position               nearest neighbor table
   1  0.000  1.000  0.498-   2 1.42  60 1.42  70 1.43
   2  0.056  0.111  0.498-   1 1.42  13 1.42  15 1.43
   3  0.168  0.002  0.498-   4 1.42  62 1.43  60 1.43
   4  0.224  0.113  0.498-   3 1.42  15 1.42  17 1.44
   5  0.334  0.002  0.498-   6 1.42  62 1.43  64 1.43
   6  0.390  0.113  0.498-   5 1.42  19 1.42  17 1.44
   7  0.500  1.000  0.498-   8 1.42  64 1.42  66 1.43
   8  0.556  0.111  0.498-   7 1.42  21 1.42  19 1.43
   9  0.666  0.998  0.498-  10 1.42  66 1.42  68 1.44
  10  0.722  0.109  0.498-   9 1.42  23 1.43  21 1.43
  11  0.832  0.998  0.498-  12 1.42  70 1.42  68 1.44
  12  0.888  0.109  0.498-  11 1.42  23 1.43  13 1.43
  13  0.999  0.165  0.498-  14 1.42   2 1.42  12 1.43
  14  0.054  0.277  0.499-  13 1.42  25 1.42  27 1.43
  15  0.167  0.168  0.498-  16 1.42   4 1.42   2 1.43
  16  0.223  0.280  0.500-  15 1.42  27 1.43  29 1.44
  17  0.335  0.170  0.499-  18 1.42   4 1.44   6 1.44
  18  0.391  0.281  0.503-  17 1.42  31 1.44  29 1.44
  19  0.501  0.168  0.498-  20 1.42   6 1.42   8 1.43
  20  0.557  0.280  0.500-  19 1.42  33 1.43  31 1.44
  21  0.667  0.165  0.498-  22 1.42   8 1.42  10 1.43
  22  0.723  0.277  0.498-  21 1.42  35 1.42  33 1.43
  23  0.833  0.165  0.498-  24 1.42  10 1.43  12 1.43
  24  0.888  0.276  0.498-  23 1.42  25 1.42  35 1.43
  25  0.999  0.332  0.498-  14 1.42  26 1.42  24 1.42
  26  0.054  0.444  0.499-  39 1.42  37 1.42  25 1.42
  27  0.165  0.333  0.500-  28 1.42  16 1.43  14 1.43
  28  0.219  0.444  0.502-  41 1.41  27 1.42  39 1.42
  29  0.335  0.338  0.503-  30 1.41  18 1.44  16 1.44
  30  0.387  0.448  0.510-  41 1.41  29 1.41  71 2.00
  31  0.503  0.338  0.504-  32 1.41  18 1.44  20 1.44
  32  0.562  0.448  0.510-  43 1.41  31 1.41  71 2.00
  33  0.668  0.333  0.500-  34 1.42  20 1.43  22 1.43
  34  0.725  0.444  0.501-  43 1.41  33 1.42  45 1.42
  35  0.833  0.332  0.498-  22 1.42  36 1.42  24 1.43
  36  0.890  0.444  0.498-  45 1.42  37 1.42  35 1.42
  37  0.000  0.500  0.498-  36 1.42  26 1.42  38 1.42
  38  0.056  0.611  0.498-  47 1.42  49 1.42  37 1.42
  39  0.165  0.500  0.500-  26 1.42  28 1.42  40 1.42
  40  0.220  0.611  0.500-  49 1.42  51 1.42  39 1.42
  41  0.329  0.499  0.505-  30 1.41  28 1.41  42 1.44
  42  0.385  0.612  0.505-  53 1.41  51 1.41  41 1.44
  43  0.671  0.499  0.505-  32 1.41  34 1.41  44 1.44
  44  0.727  0.612  0.505-  55 1.41  57 1.41  43 1.44
  45  0.836  0.500  0.499-  36 1.42  34 1.42  46 1.42
  46  0.891  0.611  0.499-  47 1.42  57 1.42  45 1.42
  47  0.001  0.667  0.498-  46 1.42  38 1.42  48 1.42
  48  0.057  0.779  0.498-  59 1.42  47 1.42  61 1.43
  49  0.166  0.667  0.499-  40 1.42  38 1.42  50 1.42
  50  0.222  0.779  0.498-  63 1.42  49 1.42  61 1.42
  51  0.331  0.667  0.502-  42 1.41  52 1.42  40 1.42
  52  0.388  0.778  0.500-  51 1.42  65 1.43  63 1.43
  53  0.494  0.663  0.510-  42 1.41  54 1.41  71 2.00
  54  0.553  0.773  0.503-  53 1.41  67 1.44  65 1.44
  55  0.669  0.663  0.510-  44 1.41  56 1.41  71 2.00
  56  0.721  0.773  0.504-  55 1.41  67 1.44  69 1.44
  57  0.837  0.667  0.501-  44 1.41  58 1.42  46 1.42
  58  0.891  0.778  0.500-  57 1.42  69 1.42  59 1.43
  59  0.002  0.835  0.498-  60 1.42  48 1.42  58 1.43
  60  0.057  0.946  0.498-  59 1.42   1 1.42   3 1.43
  61  0.168  0.835  0.498-  62 1.42  50 1.42  48 1.43
  62  0.223  0.946  0.498-  61 1.42   3 1.43   5 1.43
  63  0.333  0.835  0.499-  64 1.42  50 1.42  52 1.43
  64  0.389  0.946  0.498-  63 1.42   7 1.42   5 1.43
  65  0.499  0.832  0.500-  66 1.42  52 1.43  54 1.44
  66  0.555  0.943  0.498-  65 1.42   9 1.42   7 1.43
  67  0.665  0.830  0.503-  68 1.42  56 1.44  54 1.44
  68  0.721  0.941  0.499-  67 1.42   9 1.44  11 1.44
  69  0.833  0.832  0.500-  70 1.42  58 1.42  56 1.44
  70  0.889  0.943  0.498-  69 1.42  11 1.42   1 1.43
  71  0.528  0.556  0.554-  55 2.00  32 2.00  53 2.00  30 2.00

IMPORTANT INFORMATION: All symmetrisations will be switched off!
NOSYMM: (Re-)initialisation of all symmetry stuff for point group C_1.

 KPOINTS: K-Points

Automatic generation of k-mesh.
Space group operators:
 irot       det(A)        alpha          n_x          n_y          n_z        tau_x        tau_y        tau_z
    1     1.000000     0.000000     1.000000     0.000000     0.000000     0.000000     0.000000     0.000000

 Subroutine IBZKPT returns following result:

 Found      4 irreducible k-points:

 Following reciprocal coordinates:
            Coordinates               Weight
  0.000000  0.000000  0.000000      1.000000
  0.500000  0.000000  0.000000      1.000000
 -0.000000  0.500000  0.000000      1.000000
  0.500000  0.500000  0.000000      1.000000

 Following cartesian coordinates:
            Coordinates               Weight
  0.000000  0.000000  0.000000      1.000000
  0.033606  0.019589  0.000000      1.000000
 -0.000000  0.039178  0.000000      1.000000
  0.033606  0.058767  0.000000      1.000000

 SYSTEM =  unknown system
 POSCAR =  POSCAR-clean

 Startparameter for this run:
   NWRITE =      2    write-flag & timer
   PREC   = accura    normal or accurate (medium, high low for compatibility)
   ISTART =      0    job   : 0-new  1-cont  2-samecut
   ICHARG =      2    charge: 1-file 2-atom 10-const
   ISPIN  =      2    spin polarized calculation?
   LNONCOLLINEAR =      F non collinear calculations
   LSORBIT =      F    spin-orbit coupling
   INIWAV =      1    electr: 0-lowe 1-rand  2-diag
   LASPH  =      F    aspherical Exc in radial PAW
   METAGGA=      F    non-selfconsistent MetaGGA calc.

 Electronic Relaxation 1
   ENCUT  =  550.0 eV  40.42 Ry    6.36 a.u.  28.45 28.25 28.68*2*pi/ulx,y,z
   ENINI  =  550.0     initial cutoff
   ENAUG  =  644.9 eV  augmentation charge cutoff
   NELM   =     50;   NELMIN=  2; NELMDL= -5     # of ELM steps
   EDIFF  = 0.1E-04   stopping-criterion for ELM
   LREAL  =      T    real-space projection
   NLSPLINE    = F    spline interpolate recip. space projectors
   LCOMPAT=      F    compatible to vasp.4.4
   GGA_COMPAT  = T    GGA compatible to vasp.4.4-vasp.4.6
   LMAXPAW     = -100 max onsite density
   LMAXMIX     =    2 max onsite mixed and CHGCAR
   VOSKOWN=      0    Vosko Wilk Nusair interpolation
   ROPT   =   -0.00025  -0.00025  -0.00025  -0.00025
 Ionic relaxation
   EDIFFG = -.5E-01   stopping-criterion for IOM
   NSW    =    400    number of steps for IOM
   NBLOCK =      1;   KBLOCK =    400    inner block; outer block
   IBRION =      2    ionic relax: 0-MD 1-quasi-New 2-CG
   NFREE  =      1    steps in history (QN), initial steepest desc. (CG)
   ISIF   =      3    stress and relaxation
   IWAVPR =     11    prediction:  0-non 1-charg 2-wave 3-comb
   ISYM   =      0    0-nonsym 1-usesym 2-fastsym
   LCORR  =      T    Harris-Foulkes like correction to forces

   POTIM  = 0.3000    time-step for ionic-motion
   TEIN   =    0.0    initial temperature
   TEBEG  =    0.0;   TEEND  =   0.0 temperature during run
   SMASS  =  -3.00    Nose mass-parameter (am)
   estimated Nose-frequenzy (Omega)   =  0.10E-29 period in steps =****** mass=  -0.506E-26a.u.
   SCALEE = 1.0000    scale energy and forces
   NPACO  =    256;   APACO  = 16.0  distance and # of slots for P.C.
   PSTRESS=    0.0 pullay stress

  Mass of Ions in am
   POMASS =  12.01 14.00 12.01 52.00
  Ionic Valenz
   ZVAL   =   4.00  5.00  4.00 12.00
  Atomic Wigner-Seitz radii
  virtual crystal weights
   VCA    =   1.00  1.00  1.00  1.00
   NELECT =     293.0000    total number of electrons
   NUPDOWN=      -1.0000    fix difference up-down

 DOS related values:
   EMIN   =  10.00;   EMAX   =-10.00  energy-range for DOS
   EFERMI =   0.00
   ISMEAR =     0;   SIGMA  =   0.10  broadening in eV -4-tet -1-fermi 0-gaus

 Electronic relaxation 2 (details)
   IALGO  =     68    algorithm
   LDIAG  =      T    sub-space diagonalisation (order eigenvalues)
   LSUBROT=      F    optimize rotation matrix (better conditioning)
   TURBO    =      0    0=normal 1=particle mesh
   IRESTART =      0    0=no restart 2=restart with 2 vectors
   NREBOOT  =      0    no. of reboots
   NMIN     =      0    reboot dimension
   EREF     =   0.00    reference energy to select bands
   IMIX   =      4    mixing-type and parameters
     AMIX     =   0.40;   BMIX     =  1.00
     AMIX_MAG =   1.60;   BMIX_MAG =  1.00
     AMIN     =   0.10
     WC   =   100.;   INIMIX=   1;  MIXPRE=   1;  MAXMIX= -45

 Intra band minimization:
[...]
    -7.450278504 12.787504481  0.000000000     0.000317836  0.078386520  0.000000000
     0.000000000  0.000000000 15.000000000     0.000000000  0.000000000  0.066666667

  length of vectors
    14.900679496 14.799558123 15.000000000     0.077855200  0.078387164  0.066666667

 FORCES acting on ions
    electron-ion (+dipol)            ewald-force                    non-local-force                 convergence-correction
   0.210E+01 0.354E-01 0.683E+01   -.213E+01 -.402E-01 -.685E+01   0.595E-01 -.443E-02 0.253E-01   -.202E-02 -.662E-03 0.167E-02
   -.247E+01 -.134E+00 0.618E+01   0.253E+01 0.151E+00 -.618E+01   -.467E-01 -.375E-01 -.425E-02   -.171E-02 0.223E-02 0.167E-02
   0.964E+00 -.513E+00 0.845E+01   -.103E+01 0.630E+00 -.849E+01   0.696E-01 -.117E+00 0.519E-01   0.396E-03 0.152E-02 0.613E-03
   -.181E+01 0.468E+00 0.843E+01   0.186E+01 -.340E+00 -.848E+01   -.478E-01 -.161E+00 0.523E-01   0.203E-02 0.263E-02 0.119E-02
   0.227E+01 0.161E+00 0.680E+01   -.231E+01 0.475E-01 -.681E+01   0.631E-01 -.225E+00 0.896E-02   0.123E-02 0.549E-02 -.973E-03
   0.489E+01 -.747E+00 0.773E+01   -.493E+01 0.947E+00 -.766E+01   0.354E-01 -.225E+00 -.569E-01   0.127E-02 0.583E-02 0.203E-02
   -.836E+00 -.356E+00 0.985E+01   0.836E+00 0.482E+00 -.989E+01   0.784E-02 -.133E+00 0.278E-01   -.401E-03 0.517E-03 -.129E-02
   0.148E+01 -.279E+01 0.114E+02   -.155E+01 0.297E+01 -.115E+02   0.977E-01 -.171E+00 0.569E-01   -.417E-02 0.663E-04 -.130E-02
   -.568E+01 -.327E+01 0.631E+01   0.583E+01 0.334E+01 -.628E+01   -.158E+00 -.685E-01 -.255E-01   0.312E-02 -.294E-02 0.238E-02
   -.148E+01 -.133E+01 0.656E+01   0.150E+01 0.136E+01 -.658E+01   -.262E-01 -.319E-01 0.658E-02   0.291E-02 -.314E-02 -.272E-03
   0.188E+01 -.129E+01 0.674E+01   -.187E+01 0.128E+01 -.677E+01   -.559E-02 0.157E-01 0.236E-01   -.234E-02 -.299E-02 0.210E-02
   -.178E+01 0.156E+00 0.796E+01   0.178E+01 -.213E+00 -.799E+01   -.940E-02 0.806E-01 0.520E-01   -.412E-03 -.148E-02 0.185E-02
   0.192E+01 0.365E+01 0.738E+01   -.196E+01 -.371E+01 -.739E+01   0.139E-01 0.740E-01 0.282E-01   0.571E-03 0.859E-03 0.161E-02
   0.118E+00 0.471E+01 0.575E+01   -.105E+00 -.478E+01 -.578E+01   -.372E-01 0.802E-01 0.202E-01   0.182E-02 0.567E-03 -.111E-03
   0.271E+01 0.476E+01 0.590E+01   -.269E+01 -.465E+01 -.587E+01   -.480E-02 -.118E+00 -.356E-01   -.309E-03 0.249E-02 -.122E-04
   -.115E+01 0.910E+01 0.811E+01   0.170E+01 -.891E+01 -.818E+01   -.524E+00 -.197E+00 0.591E-01   0.104E-02 0.408E-02 -.255E-02
   0.144E+01 0.729E+01 0.733E+01   -.143E+01 -.681E+01 -.736E+01   -.274E-01 -.511E+00 0.311E-01   0.362E-02 0.528E-02 0.303E-02
   0.270E+01 0.552E+01 0.394E+00   -.242E+01 -.465E+01 0.178E-01   -.293E+00 -.907E+00 -.413E+00   0.326E-02 0.617E-02 0.475E-02
   -.930E+00 0.584E+01 0.134E+02   0.876E+00 -.558E+01 -.134E+02   0.502E-01 -.261E+00 0.843E-01   -.370E-02 0.877E-03 0.291E-02
   0.160E+01 0.678E+01 0.124E+02   -.216E+01 -.637E+01 -.126E+02   0.583E+00 -.443E+00 0.211E+00   -.638E-02 0.845E-04 0.758E-02
   -.235E+01 0.413E+01 0.864E+01   0.238E+01 -.411E+01 -.863E+01   -.575E-02 -.778E-02 -.209E-01   -.266E-02 -.446E-04 -.222E-02
   -.263E+01 0.293E+01 0.973E+01   0.251E+01 -.287E+01 -.974E+01   0.112E+00 -.445E-01 0.220E-01   -.131E-02 0.581E-03 -.133E-02
   -.148E+01 0.254E+01 0.597E+01   0.152E+01 -.255E+01 -.595E+01   -.512E-01 0.929E-02 -.185E-01   0.236E-02 -.254E-02 0.191E-03
   -.114E+01 0.241E+01 0.543E+01   0.107E+01 -.245E+01 -.546E+01   0.344E-01 0.528E-01 0.104E-01   0.194E-02 -.750E-03 -.135E-02
   0.134E+01 0.423E+01 0.460E+01   -.132E+01 -.430E+01 -.459E+01   -.280E-01 0.984E-01 0.772E-03   0.327E-02 -.137E-02 -.320E-03
   0.452E+01 0.580E+01 0.376E+01   -.457E+01 -.587E+01 -.378E+01   0.393E-01 0.823E-01 0.122E-01   0.352E-02 -.639E-03 -.138E-02
   0.468E+01 0.120E+02 0.526E+01   -.447E+01 -.121E+02 -.528E+01   -.225E+00 0.932E-01 -.131E-01   0.158E-02 0.318E-02 -.294E-02
   0.117E+02 0.105E+02 0.341E+01   -.116E+02 -.105E+02 -.346E+01   -.656E-01 0.264E-01 0.376E-01   0.451E-02 0.140E-02 -.341E-02
   -.342E+01 0.216E+02 0.162E+02   0.375E+01 -.209E+02 -.164E+02   -.326E+00 -.775E+00 0.181E+00   0.617E-02 0.611E-02 -.181E-03
   -.684E+01 0.435E+02 0.560E+02   0.138E+02 -.400E+02 -.559E+02   -.698E+01 -.345E+01 -.196E+00   0.107E-01 0.106E-01 0.251E-02
   0.416E+01 0.216E+02 -.595E+01   -.424E+01 -.202E+02 0.601E+01   0.950E-01 -.139E+01 -.506E-01   -.602E-02 0.364E-02 0.983E-02
   0.198E+00 0.406E+02 -.404E+02   -.755E+01 -.363E+02 0.425E+02   0.738E+01 -.437E+01 -.207E+01   -.126E-01 0.893E-02 0.129E-01
   -.447E+01 0.106E+02 0.107E+02   0.422E+01 -.106E+02 -.106E+02   0.242E+00 0.198E-02 -.142E+00   -.396E-02 0.251E-03 0.469E-02
   -.122E+02 0.625E+01 0.156E+02   0.117E+02 -.615E+01 -.159E+02   0.474E+00 -.115E+00 0.328E+00   -.524E-02 0.286E-02 0.465E-02
   -.270E+01 0.301E+01 0.684E+01   0.264E+01 -.305E+01 -.682E+01   0.449E-01 0.643E-01 -.426E-01   -.673E-03 -.117E-03 -.316E-02
   -.344E+01 0.500E+01 0.890E+01   0.335E+01 -.507E+01 -.894E+01   0.823E-01 0.593E-01 0.387E-01   -.460E-03 0.415E-03 -.324E-02
   -.629E+00 0.109E+01 0.523E+01   0.585E+00 -.110E+01 -.525E+01   0.553E-01 -.909E-02 0.686E-02   -.233E-03 0.194E-02 -.291E-02
   0.187E+01 -.294E-01 0.499E+01   -.199E+01 -.622E-01 -.499E+01   0.120E+00 0.603E-01 -.961E-02   -.121E-02 0.242E-02 -.285E-02
   0.662E+01 0.354E+01 0.255E+01   -.665E+01 -.372E+01 -.246E+01   0.232E-01 0.188E+00 -.923E-01   0.597E-02 -.705E-03 -.169E-02
   0.964E+01 0.195E+01 0.853E+01   -.997E+01 -.228E+01 -.861E+01   0.353E+00 0.321E+00 0.851E-01   0.466E-02 -.108E-02 -.652E-03
   0.304E+02 0.164E+02 0.180E+02   -.295E+02 -.177E+02 -.187E+02   -.886E+00 0.129E+01 0.662E+00   0.676E-02 0.279E-02 -.194E-02
   0.530E+02 0.155E+02 0.107E+02   -.562E+02 -.176E+02 -.113E+02   0.326E+01 0.219E+01 0.641E+00   0.811E-02 -.920E-03 0.150E-02
   -.257E+02 0.684E+01 0.280E+01   0.245E+02 -.753E+01 -.277E+01   0.119E+01 0.690E+00 -.126E-01   -.944E-02 0.315E-02 0.857E-02
   -.262E+02 -.705E+01 0.162E+02   0.253E+02 0.705E+01 -.165E+02   0.889E+00 -.488E-01 0.252E+00   -.795E-02 0.187E-02 0.297E-02
   -.612E+01 -.349E+00 0.130E+02   0.596E+01 0.260E+00 -.131E+02   0.153E+00 0.100E+00 0.965E-01   -.327E-02 0.309E-02 -.971E-03
   -.421E+01 -.680E+00 0.722E+01   0.411E+01 0.628E+00 -.716E+01   0.129E+00 0.501E-01 -.696E-01   -.371E-02 0.449E-02 -.255E-02
   -.376E+01 -.525E+01 0.507E+01   0.368E+01 0.523E+01 -.510E+01   0.627E-01 0.339E-01 0.138E-01   -.245E-02 0.143E-02 -.266E-02
   -.162E+00 -.381E+01 0.528E+01   0.309E-01 0.382E+01 -.527E+01   0.135E+00 0.936E-02 -.146E-01   -.395E-02 -.427E-02 -.142E-02
   0.522E+01 -.416E+01 0.704E+01   -.533E+01 0.413E+01 -.706E+01   0.127E+00 0.296E-01 0.245E-01   -.584E-03 -.878E-03 -.196E-02
   0.535E+01 -.372E+01 0.603E+01   -.546E+01 0.376E+01 -.602E+01   0.106E+00 -.159E-01 -.108E-01   0.386E-03 -.332E-02 -.189E-02
   0.233E+02 -.394E+01 0.122E+02   -.239E+02 0.390E+01 -.124E+02   0.589E+00 0.448E-01 0.192E+00   0.740E-02 -.164E-02 0.159E-02
   0.119E+02 -.144E+02 0.743E+01   -.121E+02 0.148E+02 -.731E+01   0.222E+00 -.323E+00 -.109E+00   0.652E-02 -.358E-02 0.251E-02
   -.151E+02 -.375E+02 -.168E+02   0.340E+02 0.266E+02 0.191E+02   -.189E+02 0.109E+02 -.226E+01   0.133E-01 -.926E-02 0.613E-02
   -.115E+02 -.546E+02 0.139E+01   0.121E+02 0.585E+02 -.184E+01   -.666E+00 -.392E+01 0.444E+00   0.412E-02 -.745E-02 0.454E-02
   -.103E+00 -.337E+02 0.433E+02   -.629E+01 0.296E+02 -.427E+02   0.640E+01 0.406E+01 -.648E+00   -.970E-02 -.668E-02 0.526E-02
   -.150E+01 -.237E+02 0.146E+02   0.162E+01 0.226E+02 -.148E+02   -.103E+00 0.109E+01 0.275E+00   -.386E-02 -.641E-02 0.182E-03
   -.133E+02 -.765E+01 0.994E+01   0.130E+02 0.752E+01 -.100E+02   0.290E+00 0.133E+00 0.780E-01   -.392E-02 0.285E-02 -.227E-02
   -.378E+01 -.119E+02 0.829E+01   0.353E+01 0.120E+02 -.830E+01   0.256E+00 0.246E-01 -.902E-02   -.294E-02 -.484E-02 -.271E-02
   -.129E+01 -.406E+01 0.744E+01   0.118E+01 0.410E+01 -.747E+01   0.118E+00 -.242E-01 0.258E-01   -.414E-02 -.531E-02 -.103E-02
   -.111E+01 -.479E+01 0.778E+01   0.110E+01 0.484E+01 -.779E+01   0.219E-01 -.397E-01 0.200E-01   -.171E-02 -.186E-02 0.747E-03
   0.120E+01 -.291E+01 0.542E+01   -.130E+01 0.298E+01 -.544E+01   0.131E+00 -.795E-01 0.961E-02   -.230E-02 -.260E-02 -.145E-02
   0.162E+01 -.361E+01 0.591E+01   -.166E+01 0.370E+01 -.589E+01   0.560E-01 -.934E-01 -.273E-01   -.187E-02 0.229E-02 -.784E-03
   0.555E+01 -.511E+01 0.717E+01   -.583E+01 0.536E+01 -.721E+01   0.281E+00 -.256E+00 0.351E-01   0.381E-02 -.933E-03 -.871E-03
   0.390E+01 -.630E+01 0.725E+01   -.399E+01 0.650E+01 -.725E+01   0.814E-01 -.215E+00 -.188E-01   0.370E-02 0.173E-02 -.191E-02
   0.208E+01 -.180E+02 0.102E+02   -.202E+01 0.185E+02 -.103E+02   -.821E-01 -.457E+00 0.127E+00   0.364E-02 -.608E-02 0.428E-02
   0.191E+01 -.105E+02 0.105E+02   -.180E+01 0.109E+02 -.105E+02   -.107E+00 -.411E+00 0.560E-01   0.101E-02 -.263E-02 0.211E-02
   -.855E+01 -.125E+02 0.161E+01   0.935E+01 0.122E+02 -.145E+01   -.812E+00 0.360E+00 -.154E+00   0.119E-02 -.707E-02 0.259E-02
   -.410E+01 -.820E+01 0.511E+01   0.412E+01 0.801E+01 -.513E+01   -.573E-01 0.214E+00 0.230E-01   0.180E-02 -.397E-02 0.290E-02
   0.813E+00 -.847E+01 0.784E+01   -.121E+01 0.824E+01 -.791E+01   0.405E+00 0.220E+00 0.537E-01   -.268E-02 -.623E-02 -.188E-02
   -.316E+01 -.563E+01 0.575E+01   0.314E+01 0.551E+01 -.573E+01   0.391E-01 0.112E+00 -.323E-01   -.336E-02 -.315E-02 0.635E-03
   -.185E+02 0.156E+02 -.555E+03   0.225E+02 -.192E+02 0.542E+03   -.395E+01 0.367E+01 0.132E+02   0.454E-02 -.450E-02 0.137E-01
   0.945E+01 -.688E+01 -.112E+02   0.213E-13 -.181E-12 -.227E-12   -.945E+01 0.689E+01 0.111E+02   0.858E-02 -.731E-02 0.679E-01

 POSITION                                       TOTAL-FORCE (eV/Angst)
     -7.45363     12.78338      7.46887         0.026327     -0.009146      0.004401
      0.00067      1.42029      7.47085         0.014273     -0.019089      0.000882
      2.48135      0.02065      7.46070         0.005693      0.003013      0.014731
      2.48377      1.44550      7.47365         0.006973     -0.029097      0.002987
      4.95903      0.01317      7.46397         0.018472     -0.009133     -0.010407
      4.96760      1.43328      7.47399        -0.004731     -0.019807      0.013162
      7.44589     -0.02856      7.45854         0.006374     -0.003588     -0.009772
      7.45523      1.38774      7.45333         0.023700      0.005497     -0.004174
      2.48527     12.71029      7.47953        -0.002879     -0.000920      0.005889
      9.94391      1.34559      7.46467        -0.006297     -0.006904     -0.014579
      4.96159     12.69391      7.47938         0.004534     -0.000617      0.005826
     12.41842      1.33252      7.46425        -0.016239      0.020043      0.025098
     13.65747      2.05425      7.46699        -0.023978      0.016305      0.019152
     -1.24316      3.53901      7.47849        -0.021652      0.002395     -0.002602
      1.24211      2.14591      7.48235         0.014827     -0.005295     -0.009359
      1.24479      3.57376      7.50204         0.027307     -0.004254     -0.010178
      3.72859      2.16722      7.49555        -0.014647     -0.024429      0.001606
      3.73879      3.58596      7.55892        -0.011719     -0.023453      0.005583
      6.21896      2.11393      7.46546        -0.010729      0.005342      0.017019
      6.23200      3.53297      7.50508         0.011104     -0.027722      0.024158
      8.70933      2.06762      7.45777         0.018476      0.007123     -0.014254
      8.71991      3.48595      7.46324        -0.009149      0.013369      0.006759
     11.18472      2.05127      7.46412        -0.009533      0.003741      0.000545
     11.18789      3.47306      7.46610        -0.028259      0.008752     -0.015801
     12.42234      4.18694      7.47552        -0.003851      0.019627      0.004833
     -2.48840      5.67248      7.48363        -0.001816      0.006528     -0.006825
     -0.00670      4.26193      7.50148        -0.015631     -0.010857     -0.032166
     -0.03599      5.68230      7.52457        -0.010147      0.010256     -0.018319
      2.48588      4.31486      7.53324         0.020203      0.010582      0.008242
      2.43049      5.73359      7.55955         0.016272      0.017491     -0.007574
      5.00533      4.27626      7.61641        -0.011236      0.010572      0.021621
      5.06806      5.67541      7.78968        -0.003099     -0.006868      0.018245
      7.48956      4.20411      7.48854        -0.010575      0.004959      0.027252
      7.51632      5.61898      7.50410         0.001619     -0.014617      0.012780
      9.95697      4.19003      7.46425        -0.020371      0.021603     -0.019978
      9.96111      5.61597      7.46536        -0.005941     -0.011073     -0.006536
     -3.71521      6.39173      7.47348         0.010957     -0.022250     -0.012298
     -3.72381      7.81401      7.47407        -0.001013     -0.027010     -0.015148
     -1.26827      6.38811      7.50386        -0.009978      0.004244     -0.007620
     -1.28017      7.81034      7.49061         0.018907     -0.005243      0.002558
      1.19153      6.39760      7.55659        -0.011872      0.015319     -0.009982
      1.16397      7.84509      7.59065         0.025485     -0.002713     -0.000600
      6.30264      6.32213      7.61377        -0.006413     -0.003599      0.019656
      6.28989      7.76141      7.56395         0.016756     -0.034410      0.005770
      8.74145      6.33274      7.47429        -0.007823      0.013260     -0.000700
      8.73274      7.75655      7.48611         0.025009      0.005176     -0.007839
     -4.94972      8.53168      7.47589        -0.018269      0.014502     -0.016452
     -4.96599      9.95722      7.47028         0.000782      0.015061     -0.007846
     -2.49971      8.52852      7.47419         0.013901     -0.003629      0.004041
     -2.50096      9.95270      7.46999         0.003939      0.023741     -0.001319
     -0.05924      8.53156      7.51323        -0.009180      0.001291      0.001222
     -0.03954      9.94502      7.49978        -0.026144      0.021659      0.010469
      2.35133      8.49729      7.70768        -0.023453      0.009038     -0.018462
      2.42942      9.85788      7.59316        -0.019820     -0.001016      0.001001
      5.04376      8.40812      7.58788        -0.026182     -0.016299      0.017350
      4.96667      9.81944      7.53998         0.003041      0.011358      0.005521
      7.50459      8.47321      7.50674        -0.006269      0.015207     -0.017569
      7.46412      9.88957      7.49013         0.005962      0.030068     -0.023583
     -6.20153     10.66805      7.47019         0.009891      0.013880     -0.005719
     -6.20695     12.08904      7.46303         0.014170      0.012374      0.011954
     -3.73351     10.67098      7.46595         0.028018     -0.019608     -0.011552
     -3.73233     12.09291      7.46317         0.018235     -0.003458     -0.007689
     -1.26845     10.66139      7.47359         0.005977     -0.010684      0.001376
     -1.25675     12.07921      7.46367         0.002185     -0.012694     -0.014553
      1.21418     10.61615      7.50995        -0.002934      0.001820      0.018706
      1.23363     12.03409      7.47438         0.004806     -0.008396      0.012750
      3.70710     10.53794      7.55491        -0.004672      0.004052      0.005870
      3.71618     11.96634      7.50165        -0.027411      0.013715      0.006500
      6.20728     10.57005      7.50180        -0.000476     -0.012577     -0.014031
      6.20511     11.99661      7.48319         0.013280     -0.013305     -0.004737
      3.72290      7.06990      8.23392         0.006935      0.010798      0.014706
    total drift:                                0.000971      0.005571     -0.027746

  FREE ENERGIE OF THE ION-ELECTRON SYSTEM (eV)
  free  energy   TOTEN  =      -655.24911769 eV

  energy  without entropy=     -655.21606330  energy(sigma->0) =     -655.23259049

 d Force = 0.1322209E-02[ 0.529E-03, 0.212E-02]  d Energy = 0.1300670E-02 0.215E-04
 d Force = 0.4568957E+00[ 0.473E+00, 0.441E+00]  d Ewald  = 0.3850662E+01-0.339E+01

 Conjugate gradient step on ions:
 trial-energy change:   -0.001301  1 .order   -0.001324   -0.002130   -0.000517
  (g-gl).g = 0.245E-02      g.g   = 0.249E-02  gl.gl    = 0.278E-02
 g(Force)  = 0.242E-02   g(Stress)= 0.668E-04 ortho     = 0.617E-05
 gamma     =   0.87992
 trial     =   0.85455
 opt step  =   1.12858  (harmonic =   1.12858) maximal distance =0.00484239
 next E    =  -655.249224   (d E  =  -0.00141)

 reached required accuracy - stopping structural energy minimisation