 vasp.5.4.4.18Apr17-6-g9f103f2a35 (build Sep 02 2021 13:24:58) complex

 executed on             LinuxIFC date 2023.01.15  13:02:12

 INCAR:
 POTCAR:    PAW_PBE C 08Apr2002
 POTCAR:    PAW_PBE N 08Apr2002
 POTCAR:    PAW_PBE C 08Apr2002
 POTCAR:    PAW_PBE Cr_pv 02Aug2007
 POTCAR:    PAW_PBE C 08Apr2002
   VRHFIN =C: s2p2

   TITEL  = PAW_PBE C 08Apr2002
   POMASS =   12.011; ZVAL   =    4.000    mass and valenz
   ENMAX  =  400.000; ENMIN  =  300.000 eV

[...]

   TITEL  = PAW_PBE C 08Apr2002
   POMASS =   12.011; ZVAL   =    4.000    mass and valenz
   ENMAX  =  400.000; ENMIN  =  300.000 eV

   TITEL  = PAW_PBE Cr_pv 02Aug2007
   POMASS =   51.996; ZVAL   =   12.000    mass and valenz
   ENMAX  =  265.681; ENMIN  =  199.261 eV

 Optimization of the real space projectors (new method)

 maximal supplied QI-value         = 25.13
 optimisation between [QCUT,QGAM] = [ 11.81, 23.88] = [ 39.08,159.64] Ry
 Optimized for a Real-space Cutoff    1.18 Angstroem

   l    n(q)    QCUT    max X(q) W(low)/X(q) W(high)/X(q)  e(spline)
   0      8    11.813   115.676    0.10E-03    0.16E-03    0.35E-06
   0      8    11.813    87.132    0.10E-03    0.16E-03    0.35E-06
   1      8    11.813     4.429    0.16E-03    0.13E-04    0.22E-06
   1      8    11.813     2.733    0.13E-03    0.10E-04    0.18E-06
 Optimization of the real space projectors (new method)

[...]

   l    n(q)    QCUT    max X(q) W(low)/X(q) W(high)/X(q)  e(spline)
   0      8    11.813   115.676    0.10E-03    0.16E-03    0.35E-06
   0      8    11.813    87.132    0.10E-03    0.16E-03    0.35E-06
   1      8    11.813     4.429    0.16E-03    0.13E-04    0.22E-06
   1      8    11.813     2.733    0.13E-03    0.10E-04    0.18E-06
 Optimization of the real space projectors (new method)

 maximal supplied QI-value         = 16.25
 optimisation between [QCUT,QGAM] = [ 11.86, 23.89] = [ 39.41,159.82] Ry
 Optimized for a Real-space Cutoff    1.33 Angstroem

   l    n(q)    QCUT    max X(q) W(low)/X(q) W(high)/X(q)  e(spline)
   1      9    11.864     3.262    0.48E-04    0.16E-03    0.14E-06
   1      9    11.864     5.741    0.74E-04    0.40E-03    0.35E-06
   2      9    11.864    60.438    0.17E-03    0.21E-03    0.26E-06
   2      9    11.864    55.380    0.17E-03    0.21E-03    0.27E-06
   0      9    11.864    80.273    0.40E-04    0.47E-04    0.12E-06
   0      9    11.864    36.654    0.35E-04    0.41E-04    0.11E-06
  PAW_PBE C 08Apr2002                   :
  PAW_PBE N 08Apr2002                   :
  PAW_PBE C 08Apr2002                   :
  PAW_PBE Cr_pv 02Aug2007               :

 POSCAR: POSCAR-clean
  positions in cartesian coordinates
 exchange correlation table for  LEXCH =        8
   RHO(1)=    0.500       N(1)  =     2000
   RHO(2)=  100.500       N(2)  =     4000

 ion  position               nearest neighbor table
   1  0.000  1.000  0.498-   2 1.42  60 1.42  70 1.43
   2  0.056  0.111  0.498-   1 1.42  13 1.42  15 1.43
   3  0.168  0.002  0.498-   4 1.42  62 1.43  60 1.43
   4  0.224  0.113  0.498-   3 1.42  15 1.42  17 1.44
   5  0.334  0.002  0.498-   6 1.42  62 1.43  64 1.43
   6  0.390  0.113  0.498-   5 1.42  19 1.42  17 1.44
   7  0.500  1.000  0.498-   8 1.42  64 1.42  66 1.43
   8  0.556  0.111  0.498-   7 1.42  21 1.42  19 1.43
   9  0.666  0.998  0.498-  10 1.42  66 1.42  68 1.44
  10  0.722  0.109  0.498-   9 1.42  23 1.43  21 1.43
  11  0.832  0.998  0.498-  12 1.42  70 1.42  68 1.44
  12  0.888  0.109  0.498-  11 1.42  23 1.43  13 1.43
  13  0.999  0.165  0.498-  14 1.42   2 1.42  12 1.43
  14  0.054  0.277  0.499-  13 1.42  25 1.42  27 1.43
  15  0.167  0.168  0.498-  16 1.42   4 1.42   2 1.43
  16  0.223  0.280  0.500-  15 1.42  27 1.43  29 1.44
  17  0.335  0.170  0.499-  18 1.42   4 1.44   6 1.44
  18  0.391  0.281  0.503-  17 1.42  31 1.44  29 1.44
  19  0.501  0.168  0.498-  20 1.42   6 1.42   8 1.43
  20  0.557  0.280  0.500-  19 1.42  33 1.43  31 1.44
  21  0.667  0.165  0.498-  22 1.42   8 1.42  10 1.43
  22  0.723  0.277  0.498-  21 1.42  35 1.42  33 1.43
  23  0.833  0.165  0.498-  24 1.42  10 1.43  12 1.43
  24  0.888  0.276  0.498-  23 1.42  25 1.42  35 1.43
  25  0.999  0.332  0.498-  14 1.42  26 1.42  24 1.42
  26  0.054  0.444  0.499-  39 1.42  37 1.42  25 1.42
  27  0.165  0.333  0.500-  28 1.42  16 1.43  14 1.43
  28  0.219  0.444  0.502-  41 1.41  27 1.42  39 1.42
  29  0.335  0.338  0.503-  30 1.41  18 1.44  16 1.44
  30  0.387  0.448  0.510-  41 1.41  29 1.41  71 2.00
  31  0.503  0.338  0.504-  32 1.41  18 1.44  20 1.44
  32  0.562  0.448  0.510-  43 1.41  31 1.41  71 2.00
  33  0.668  0.333  0.500-  34 1.42  20 1.43  22 1.43
  34  0.725  0.444  0.501-  43 1.41  33 1.42  45 1.42
  35  0.833  0.332  0.498-  22 1.42  36 1.42  24 1.43
  36  0.890  0.444  0.498-  45 1.42  37 1.42  35 1.42
  37  0.000  0.500  0.498-  36 1.42  26 1.42  38 1.42
  38  0.056  0.611  0.498-  47 1.42  49 1.42  37 1.42
  39  0.165  0.500  0.500-  26 1.42  28 1.42  40 1.42
  40  0.220  0.611  0.500-  49 1.42  51 1.42  39 1.42
  41  0.329  0.499  0.505-  30 1.41  28 1.41  42 1.44
  42  0.385  0.612  0.505-  53 1.41  51 1.41  41 1.44
  43  0.671  0.499  0.505-  32 1.41  34 1.41  44 1.44
  44  0.727  0.612  0.505-  55 1.41  57 1.41  43 1.44
  45  0.836  0.500  0.499-  36 1.42  34 1.42  46 1.42
  46  0.891  0.611  0.499-  47 1.42  57 1.42  45 1.42
  47  0.001  0.667  0.498-  46 1.42  38 1.42  48 1.42
  48  0.057  0.779  0.498-  59 1.42  47 1.42  61 1.43
  49  0.166  0.667  0.499-  40 1.42  38 1.42  50 1.42
  50  0.222  0.779  0.498-  63 1.42  49 1.42  61 1.42
  51  0.331  0.667  0.502-  42 1.41  52 1.42  40 1.42
  52  0.388  0.778  0.500-  51 1.42  65 1.43  63 1.43
  53  0.494  0.663  0.510-  42 1.41  54 1.41  71 2.00
  54  0.553  0.773  0.503-  53 1.41  67 1.44  65 1.44
  55  0.669  0.663  0.510-  44 1.41  56 1.41  71 2.00
  56  0.721  0.773  0.504-  55 1.41  67 1.44  69 1.44
  57  0.837  0.667  0.501-  44 1.41  58 1.42  46 1.42
  58  0.891  0.778  0.500-  57 1.42  69 1.42  59 1.43
  59  0.002  0.835  0.498-  60 1.42  48 1.42  58 1.43
  60  0.057  0.946  0.498-  59 1.42   1 1.42   3 1.43
  61  0.168  0.835  0.498-  62 1.42  50 1.42  48 1.43
  62  0.223  0.946  0.498-  61 1.42   3 1.43   5 1.43
  63  0.333  0.835  0.499-  64 1.42  50 1.42  52 1.43
  64  0.389  0.946  0.498-  63 1.42   7 1.42   5 1.43
  65  0.499  0.832  0.500-  66 1.42  52 1.43  54 1.44
  66  0.555  0.943  0.498-  65 1.42   9 1.42   7 1.43
  67  0.665  0.830  0.503-  68 1.42  56 1.44  54 1.44
  68  0.721  0.941  0.499-  67 1.42   9 1.44  11 1.44
  69  0.833  0.832  0.500-  70 1.42  58 1.42  56 1.44
  70  0.889  0.943  0.498-  69 1.42  11 1.42   1 1.43
  71  0.528  0.556  0.554-  55 2.00  32 2.00  53 2.00  30 2.00

IMPORTANT INFORMATION: All symmetrisations will be switched off!
NOSYMM: (Re-)initialisation of all symmetry stuff for point group C_1.

 KPOINTS: K-Points

Automatic generation of k-mesh.
Space group operators:
 irot       det(A)        alpha          n_x          n_y          n_z        tau_x        tau_y        tau_z
    1     1.000000     0.000000     1.000000     0.000000     0.000000     0.000000     0.000000     0.000000

 Subroutine IBZKPT returns following result:

 Found      4 irreducible k-points:

 Following reciprocal coordinates:
            Coordinates               Weight
  0.000000  0.000000  0.000000      1.000000
  0.500000  0.000000  0.000000      1.000000
 -0.000000  0.500000  0.000000      1.000000
  0.500000  0.500000  0.000000      1.000000

 Following cartesian coordinates:
            Coordinates               Weight
  0.000000  0.000000  0.000000      1.000000
  0.033606  0.019589  0.000000      1.000000
 -0.000000  0.039178  0.000000      1.000000
  0.033606  0.058767  0.000000      1.000000

 SYSTEM =  unknown system
 POSCAR =  POSCAR-clean

 Startparameter for this run:
   NWRITE =      2    write-flag & timer
   PREC   = accura    normal or accurate (medium, high low for compatibility)
   ISTART =      0    job   : 0-new  1-cont  2-samecut
   ICHARG =      2    charge: 1-file 2-atom 10-const
   ISPIN  =      2    spin polarized calculation?
   LNONCOLLINEAR =      F non collinear calculations
   LSORBIT =      F    spin-orbit coupling
   INIWAV =      1    electr: 0-lowe 1-rand  2-diag
   LASPH  =      F    aspherical Exc in radial PAW
   METAGGA=      F    non-selfconsistent MetaGGA calc.

 Electronic Relaxation 1
   ENCUT  =  550.0 eV  40.42 Ry    6.36 a.u.  28.45 28.25 28.68*2*pi/ulx,y,z
   ENINI  =  550.0     initial cutoff
   ENAUG  =  644.9 eV  augmentation charge cutoff
   NELM   =     50;   NELMIN=  2; NELMDL= -5     # of ELM steps
   EDIFF  = 0.1E-04   stopping-criterion for ELM
   LREAL  =      T    real-space projection
   NLSPLINE    = F    spline interpolate recip. space projectors
   LCOMPAT=      F    compatible to vasp.4.4
   GGA_COMPAT  = T    GGA compatible to vasp.4.4-vasp.4.6
   LMAXPAW     = -100 max onsite density
   LMAXMIX     =    2 max onsite mixed and CHGCAR
   VOSKOWN=      0    Vosko Wilk Nusair interpolation
   ROPT   =   -0.00025  -0.00025  -0.00025  -0.00025
 Ionic relaxation
   EDIFFG = -.5E-01   stopping-criterion for IOM
   NSW    =    400    number of steps for IOM
   NBLOCK =      1;   KBLOCK =    400    inner block; outer block
   IBRION =      2    ionic relax: 0-MD 1-quasi-New 2-CG
   NFREE  =      1    steps in history (QN), initial steepest desc. (CG)
   ISIF   =      3    stress and relaxation
   IWAVPR =     11    prediction:  0-non 1-charg 2-wave 3-comb
   ISYM   =      0    0-nonsym 1-usesym 2-fastsym
   LCORR  =      T    Harris-Foulkes like correction to forces

   POTIM  = 0.3000    time-step for ionic-motion
   TEIN   =    0.0    initial temperature
   TEBEG  =    0.0;   TEEND  =   0.0 temperature during run
   SMASS  =  -3.00    Nose mass-parameter (am)
   estimated Nose-frequenzy (Omega)   =  0.10E-29 period in steps =****** mass=  -0.506E-26a.u.
   SCALEE = 1.0000    scale energy and forces
   NPACO  =    256;   APACO  = 16.0  distance and # of slots for P.C.
   PSTRESS=    0.0 pullay stress

  Mass of Ions in am
   POMASS =  12.01 14.00 12.01 52.00
  Ionic Valenz
   ZVAL   =   4.00  5.00  4.00 12.00
  Atomic Wigner-Seitz radii
  virtual crystal weights
   VCA    =   1.00  1.00  1.00  1.00
   NELECT =     293.0000    total number of electrons
   NUPDOWN=      -1.0000    fix difference up-down

 DOS related values:
   EMIN   =  10.00;   EMAX   =-10.00  energy-range for DOS
   EFERMI =   0.00
   ISMEAR =     0;   SIGMA  =   0.10  broadening in eV -4-tet -1-fermi 0-gaus

 Electronic relaxation 2 (details)
   IALGO  =     68    algorithm
   LDIAG  =      T    sub-space diagonalisation (order eigenvalues)
   LSUBROT=      F    optimize rotation matrix (better conditioning)
   TURBO    =      0    0=normal 1=particle mesh
   IRESTART =      0    0=no restart 2=restart with 2 vectors
   NREBOOT  =      0    no. of reboots
   NMIN     =      0    reboot dimension
   EREF     =   0.00    reference energy to select bands
   IMIX   =      4    mixing-type and parameters
     AMIX     =   0.40;   BMIX     =  1.00
     AMIX_MAG =   1.60;   BMIX_MAG =  1.00
     AMIN     =   0.10
     WC   =   100.;   INIMIX=   1;  MIXPRE=   1;  MAXMIX= -45

 Intra band minimization:
[...]
    -7.430580315 12.757783281  0.000000000     0.000020534  0.078395483  0.000000000
     0.000000000  0.000000000 15.000000000     0.000000000  0.000000000  0.066666667

  length of vectors
    14.861161140 14.763961463 15.000000000     0.077882738  0.078395485  0.066666667

 FORCES acting on ions
    electron-ion (+dipol)            ewald-force                    non-local-force                 convergence-correction
   0.619E+01 -.102E+02 0.790E+01   -.730E+01 0.111E+02 -.794E+01   0.112E+01 -.896E+00 0.314E-01   0.390E-03 -.252E-02 -.389E-04
   0.103E+01 -.278E+01 0.769E+01   -.973E+00 0.348E+01 -.772E+01   -.629E-01 -.709E+00 0.278E-01   0.215E-02 -.140E-02 -.616E-04
   -.453E+01 -.954E+01 0.734E+01   0.556E+01 0.106E+02 -.735E+01   -.104E+01 -.107E+01 0.187E-01   -.776E-03 -.886E-03 0.708E-04
   -.457E+01 -.246E+01 0.755E+01   0.465E+01 0.321E+01 -.754E+01   -.686E-01 -.751E+00 -.333E-02   -.147E-02 -.751E-03 0.416E-04
   -.381E+01 -.213E+01 0.661E+01   0.423E+01 0.248E+01 -.663E+01   -.416E+00 -.344E+00 0.201E-01   -.325E-02 -.172E-02 -.256E-03
   0.411E+00 -.319E+00 0.695E+01   -.366E+00 0.580E+00 -.695E+01   -.484E-01 -.279E+00 -.213E-02   -.292E-02 0.131E-04 -.210E-03
   -.248E+01 -.323E+00 0.766E+01   0.265E+01 0.301E+00 -.768E+01   -.177E+00 0.252E-01 0.237E-01   -.693E-03 -.145E-02 -.129E-03
   0.160E+01 -.521E+00 0.782E+01   -.164E+01 0.577E+00 -.784E+01   0.336E-01 -.603E-01 0.224E-01   -.973E-03 0.101E-03 -.138E-03
   -.170E+01 -.840E+00 0.758E+01   0.165E+01 0.755E+00 -.759E+01   0.610E-01 0.805E-01 0.960E-02   0.141E-02 -.218E-02 -.332E-04
   0.505E+00 -.772E+00 0.733E+01   -.540E+00 0.676E+00 -.736E+01   0.338E-01 0.953E-01 0.253E-01   0.774E-03 -.122E-02 -.121E-03
   0.573E+01 -.280E+01 0.698E+01   -.623E+01 0.293E+01 -.698E+01   0.486E+00 -.117E+00 0.171E-02   0.296E-02 -.369E-02 -.264E-03
   0.183E+01 -.113E+01 0.655E+01   -.193E+01 0.117E+01 -.657E+01   0.105E+00 -.596E-01 0.183E-01   0.243E-02 -.201E-02 -.309E-03
   0.143E+01 0.218E+01 0.682E+01   -.159E+01 -.205E+01 -.683E+01   0.165E+00 -.131E+00 0.705E-02   0.193E-02 -.146E-02 -.255E-03
   0.234E+01 0.250E+01 0.644E+01   -.231E+01 -.241E+01 -.646E+01   -.254E-01 -.643E-01 0.178E-01   0.157E-02 -.185E-02 -.262E-03
   0.166E+01 0.661E-01 0.877E+01   -.160E+01 0.379E+00 -.878E+01   -.694E-01 -.475E+00 0.189E-01   0.518E-03 -.129E-02 0.985E-04
   -.183E+01 0.636E+01 0.102E+02   0.232E+01 -.591E+01 -.103E+02   -.504E+00 -.458E+00 0.927E-01   0.913E-03 -.183E-02 0.140E-03
   0.152E+00 0.438E+01 0.730E+01   -.153E-02 -.381E+01 -.732E+01   -.148E+00 -.591E+00 0.196E-01   -.129E-02 -.620E-04 -.140E-03
   -.519E+00 0.639E+01 0.623E+01   0.563E+00 -.562E+01 -.585E+01   -.355E-01 -.779E+00 -.383E+00   -.100E-02 -.122E-02 -.253E-03
   -.315E+01 0.417E+01 0.833E+01   0.314E+01 -.396E+01 -.835E+01   0.264E-03 -.224E+00 0.187E-01   -.198E-02 0.993E-03 -.148E-03
   0.143E+01 0.722E+01 0.976E+01   -.195E+01 -.695E+01 -.985E+01   0.521E+00 -.277E+00 0.892E-01   -.157E-02 0.828E-03 -.148E-03
   -.179E+01 0.369E+01 0.779E+01   0.181E+01 -.374E+01 -.779E+01   -.182E-01 0.506E-01 0.792E-02   -.754E-03 -.141E-04 -.900E-04
   -.154E+01 0.395E+01 0.799E+01   0.148E+01 -.400E+01 -.802E+01   0.527E-01 0.645E-01 0.310E-01   -.938E-03 0.155E-02 -.575E-04
   0.992E+00 0.204E+01 0.598E+01   -.107E+01 -.203E+01 -.597E+01   0.801E-01 -.158E-01 -.150E-01   0.163E-02 -.783E-03 -.280E-03
   0.927E+00 0.249E+01 0.598E+01   -.891E+00 -.250E+01 -.600E+01   -.217E-01 0.261E-01 0.221E-01   0.957E-03 0.394E-03 -.364E-03
   0.851E+00 0.246E+01 0.516E+01   -.816E+00 -.249E+01 -.514E+01   -.281E-01 0.465E-01 -.226E-01   0.309E-03 -.108E-03 -.445E-03
   0.347E+01 0.541E+01 0.553E+01   -.332E+01 -.550E+01 -.556E+01   -.118E+00 0.761E-01 0.288E-01   -.472E-03 0.207E-02 -.410E-03
   0.454E+01 0.910E+01 0.697E+01   -.434E+01 -.908E+01 -.693E+01   -.199E+00 -.267E-01 -.306E-01   0.240E-02 -.157E-02 0.627E-04
   0.121E+02 0.664E+01 0.588E+01   -.119E+02 -.652E+01 -.599E+01   -.293E+00 -.122E+00 0.119E+00   0.207E-02 0.106E-02 0.172E-03
   -.179E+01 0.175E+02 0.124E+02   0.207E+01 -.165E+02 -.126E+02   -.305E+00 -.103E+01 0.230E+00   -.179E-03 -.935E-03 0.328E-04
   -.757E+01 0.346E+02 0.260E+02   0.137E+02 -.311E+02 -.251E+02   -.617E+01 -.356E+01 -.907E+00   0.714E-04 0.553E-04 -.873E-04
   0.154E+01 0.169E+02 0.112E+02   -.179E+01 -.159E+02 -.115E+02   0.253E+00 -.981E+00 0.224E+00   -.504E-03 -.398E-03 -.372E-03
   0.780E+01 0.356E+02 0.237E+02   -.141E+02 -.320E+02 -.227E+02   0.627E+01 -.355E+01 -.906E+00   0.355E-03 0.182E-02 -.319E-03
   -.414E+01 0.106E+02 0.792E+01   0.389E+01 -.107E+02 -.788E+01   0.248E+00 0.140E+00 -.321E-01   -.134E-02 0.195E-02 -.151E-04
   -.111E+02 0.882E+01 0.756E+01   0.108E+02 -.885E+01 -.768E+01   0.390E+00 0.265E-01 0.113E+00   -.707E-03 0.344E-02 -.378E-04
   -.178E+01 0.422E+01 0.658E+01   0.174E+01 -.433E+01 -.656E+01   0.328E-01 0.132E+00 -.184E-01   -.480E-03 0.191E-02 -.194E-03
   -.348E+01 0.616E+01 0.743E+01   0.350E+01 -.633E+01 -.746E+01   -.305E-01 0.181E+00 0.362E-01   -.128E-02 0.280E-02 -.184E-03
   -.150E+01 0.147E+01 0.621E+01   0.158E+01 -.165E+01 -.623E+01   -.862E-01 0.194E+00 0.126E-01   -.577E-03 0.230E-02 -.409E-03
   -.731E+00 0.307E+01 0.628E+01   0.128E+01 -.342E+01 -.629E+01   -.546E+00 0.337E+00 0.109E-01   -.923E-03 0.240E-02 -.350E-03
   0.417E+01 0.136E+01 0.403E+01   -.406E+01 -.140E+01 -.399E+01   -.121E+00 0.643E-01 -.371E-01   -.813E-04 0.233E-02 -.949E-04
   0.427E+01 -.284E+00 0.402E+01   -.402E+01 0.189E+00 -.399E+01   -.236E+00 0.840E-01 -.375E-01   -.989E-03 0.965E-03 -.100E-03
   0.247E+02 0.850E+01 0.139E+02   -.238E+02 -.895E+01 -.144E+02   -.823E+00 0.455E+00 0.575E+00   0.710E-03 0.646E-04 0.137E-03
   0.251E+02 -.880E+01 0.139E+02   -.242E+02 0.924E+01 -.145E+02   -.867E+00 -.440E+00 0.544E+00   0.848E-03 -.323E-03 0.286E-04
   -.232E+02 0.918E+01 0.129E+02   0.221E+02 -.979E+01 -.134E+02   0.101E+01 0.641E+00 0.492E+00   0.110E-02 0.191E-02 -.269E-03
   -.231E+02 -.460E+01 0.127E+02   0.216E+02 0.469E+01 -.131E+02   0.149E+01 -.111E+00 0.419E+00   0.182E-02 0.286E-02 -.886E-04
   -.511E+01 0.477E+01 0.687E+01   0.500E+01 -.525E+01 -.686E+01   0.102E+00 0.486E+00 -.164E-01   -.143E-02 0.366E-02 0.121E-04
   -.485E+01 0.778E+01 0.699E+01   0.478E+01 -.863E+01 -.697E+01   0.738E-01 0.846E+00 -.206E-01   -.131E-02 0.194E-02 0.429E-04
   -.103E+02 0.464E+01 0.752E+01   0.105E+02 -.600E+01 -.756E+01   -.248E+00 0.136E+01 0.400E-01   -.196E-02 0.137E-02 -.836E-04
   -.247E+02 0.988E+01 0.656E+01   0.300E+02 -.130E+02 -.656E+01   -.535E+01 0.308E+01 -.576E-02   -.190E-02 0.138E-03 0.335E-04
   -.638E+00 -.235E+01 0.545E+01   0.932E+00 0.221E+01 -.548E+01   -.307E+00 0.154E+00 0.218E-01   -.117E-02 0.103E-02 -.303E-03
   -.198E+01 -.358E+01 0.517E+01   0.261E+01 0.331E+01 -.515E+01   -.612E+00 0.277E+00 -.290E-01   -.206E-02 -.378E-03 -.293E-03
   0.107E+02 -.632E+01 0.596E+01   -.104E+02 0.622E+01 -.608E+01   -.327E+00 0.112E+00 0.118E+00   -.631E-03 -.368E-03 0.447E-04
   0.364E+01 -.104E+02 0.704E+01   -.329E+01 0.104E+02 -.700E+01   -.330E+00 -.970E-02 -.308E-01   -.792E-03 -.479E-03 0.493E-04
   -.749E+01 -.345E+02 0.263E+02   0.137E+02 0.309E+02 -.254E+02   -.620E+01 0.358E+01 -.824E+00   0.113E-02 -.359E-04 -.269E-03
   -.543E+00 -.185E+02 0.122E+02   0.712E+00 0.175E+02 -.124E+02   -.195E+00 0.100E+01 0.232E+00   0.206E-02 -.914E-03 0.893E-04
   0.119E+02 -.316E+02 0.222E+02   -.185E+02 0.277E+02 -.212E+02   0.660E+01 0.386E+01 -.951E+00   0.313E-02 0.216E-02 -.135E-03
   0.502E+01 -.186E+02 0.111E+02   -.585E+01 0.172E+02 -.112E+02   0.850E+00 0.136E+01 0.166E+00   0.308E-02 0.582E-03 0.451E-05
   -.502E+01 0.240E+01 0.738E+01   0.442E+01 -.394E+01 -.749E+01   0.609E+00 0.153E+01 0.106E+00   -.167E-03 0.129E-02 0.903E-04
   0.191E+02 0.348E+01 0.723E+01   -.246E+02 -.666E+01 -.704E+01   0.552E+01 0.318E+01 -.193E+00   -.155E-03 0.359E-03 0.158E-03
   -.224E+01 -.412E+01 0.966E+01   0.215E+01 0.401E+01 -.980E+01   0.876E-01 0.100E+00 0.152E+00   -.179E-02 -.382E-03 0.335E-03
   -.152E+01 -.307E+02 0.770E+01   0.148E+01 0.370E+02 -.773E+01   0.366E-01 -.625E+01 0.261E-01   -.913E-03 -.170E-02 0.158E-03
   -.107E+02 -.863E+00 0.602E+01   0.120E+02 0.131E+01 -.604E+01   -.134E+01 -.464E+00 0.187E-01   -.129E-02 0.157E-03 -.169E-03
   -.656E+01 -.662E+01 0.605E+01   0.729E+01 0.710E+01 -.604E+01   -.736E+00 -.484E+00 -.126E-01   -.133E-02 -.629E-03 -.132E-03
   -.399E+00 -.203E+01 0.642E+01   0.673E+00 0.210E+01 -.645E+01   -.271E+00 -.717E-01 0.192E-01   -.174E-02 -.534E-03 -.196E-03
   -.443E+00 -.501E+01 0.678E+01   0.606E+00 0.507E+01 -.679E+01   -.174E+00 -.586E-01 0.131E-02   -.238E-02 -.169E-02 -.242E-03
   -.216E+01 -.639E+01 0.101E+02   0.267E+01 0.614E+01 -.102E+02   -.506E+00 0.246E+00 0.964E-01   0.395E-03 -.608E-03 0.164E-03
   0.198E+01 -.497E+01 0.874E+01   -.192E+01 0.480E+01 -.876E+01   -.686E-01 0.178E+00 0.208E-01   0.430E-03 -.179E-02 0.671E-04
   0.142E+01 -.564E+01 0.601E+01   -.163E+01 0.497E+01 -.564E+01   0.213E+00 0.676E+00 -.374E+00   0.271E-02 -.574E-04 -.607E-04
   0.217E+01 -.729E+01 0.741E+01   -.234E+01 0.688E+01 -.744E+01   0.193E+00 0.435E+00 0.250E-01   0.304E-02 -.298E-02 -.114E-03
   0.125E+02 -.554E+01 0.101E+02   -.144E+02 0.564E+01 -.102E+02   0.193E+01 -.982E-01 0.917E-01   0.107E-02 -.379E-03 0.159E-04
   0.530E+01 -.836E+01 0.859E+01   -.609E+01 0.863E+01 -.862E+01   0.805E+00 -.257E+00 0.212E-01   0.107E-02 -.247E-02 -.167E-03
   0.371E+00 0.446E+00 -.629E+03   -.960E-01 -.554E+00 0.611E+03   -.308E+00 0.120E+00 0.181E+02   0.716E-02 0.166E-03 -.318E-02
   0.603E-01 -.474E+00 -.178E+02   0.106E-13 0.121E-12 0.114E-12   -.657E-01 0.490E+00 0.178E+02   0.640E-02 -.400E-03 -.102E-01

 POSITION                                       TOTAL-FORCE (eV/Angst)
     -7.42503     12.74371      7.46471         0.006104      0.005495     -0.001122
      0.00842      1.41400      7.46579        -0.009777     -0.007037     -0.000546
      2.47686      0.01255      7.46332        -0.007561      0.004965      0.001798
      2.47358      1.43809      7.47379         0.012337     -0.000487      0.001728
      4.95064      0.02200      7.46603         0.005001      0.010483     -0.004153
      4.95280      1.44580      7.47576        -0.005868     -0.017643     -0.003005
      0.00100     12.75237      7.46585        -0.010073      0.002153     -0.001629
      7.43241      1.41745      7.46478        -0.009842     -0.005741     -0.001102
      2.48025     12.72583      7.47368         0.014112     -0.007580      0.000588
      9.91271      1.38928      7.46309         0.000575     -0.003817     -0.000123
      4.95691     12.72469      7.47550        -0.006392      0.003337     -0.004933
     12.38579      1.39078      7.46606         0.009825     -0.022131     -0.003917
     13.62095      2.10374      7.46724         0.004120     -0.002178     -0.004225
     -1.24643      3.52822      7.47732         0.010534      0.023123     -0.002635
      1.23843      2.14126      7.47537        -0.002082     -0.031213      0.002651
      1.23677      3.56741      7.50092        -0.005896     -0.015392      0.002333
      3.71443      2.16594      7.49093         0.000750     -0.018801     -0.002162
      3.71677      3.58693      7.53704         0.007685      0.002011     -0.001975
      6.19344      2.14239      7.47616        -0.012096     -0.018198     -0.000704
      6.19640      3.56722      7.50072        -0.011775     -0.002237      0.000160
      8.67718      2.10839      7.46281        -0.002622      0.007969      0.000284
      8.68181      3.52915      7.47030        -0.007900      0.008061      0.002274
     11.14957      2.10066      7.46424         0.008281     -0.006787     -0.002806
     11.14927      3.52244      7.46639         0.014928      0.012837     -0.004612
     12.37917      4.23457      7.47483         0.007257      0.010819     -0.007233
     -2.48930      5.66513      7.48162         0.025283     -0.010564     -0.006028
     -0.01499      4.24595      7.50018         0.005743     -0.016558      0.002751
     -0.03993      5.66287      7.52602        -0.009601     -0.010859      0.002324
      2.47300      4.30916      7.55090        -0.009809     -0.018969      0.002640
      2.42716      5.72111      7.64203         0.005222     -0.025789      0.014709
      4.96070      4.30920      7.55322        -0.010848      0.027200      0.000739
      5.00865      5.72675      7.64636        -0.020032     -0.003425      0.003991
      7.44896      4.24540      7.49456         0.002470      0.034252      0.003510
      7.47279      5.66284      7.51813         0.020766     -0.007741     -0.001594
      9.91626      4.23723      7.46862        -0.012305      0.021567     -0.001164
      9.92331      5.66009      7.47363        -0.010490      0.013140     -0.000350
     -3.71568      6.38248      7.47425        -0.014946      0.008380     -0.006753
     -3.71627      7.80764      7.47413         0.003649     -0.016526     -0.005964
     -1.26896      6.37729      7.50464        -0.015838      0.019158     -0.000567
     -1.26919      7.79865      7.50460         0.007314     -0.008235     -0.000177
      1.17829      6.36909      7.57883         0.018153      0.001293      0.004120
      1.17892      7.80427      7.57863        -0.008795      0.005610     -0.000027
      6.25724      6.37275      7.57879        -0.007868      0.020411     -0.003589
      6.25962      7.81312      7.57899         0.014683     -0.015725      0.001604
      8.70163      6.37638      7.49258        -0.002857      0.007132      0.003142
      8.70292      7.79352      7.49224         0.000283     -0.000362      0.002120
     -4.94871      8.52386      7.47350         0.000443      0.002332     -0.000871
     -4.95645      9.94358      7.46892        -0.026971      0.011395      0.001083
     -2.49096      8.51412      7.48167        -0.015975      0.011086     -0.004353
     -2.49120      9.93545      7.47479         0.017659      0.000135     -0.005237
     -0.04129      8.51153      7.52560        -0.014600      0.012531      0.000179
     -0.01774      9.92755      7.49988         0.012253     -0.015351      0.003002
      2.42739      8.45066      7.64072         0.020799      0.003568      0.005020
      2.47658      9.86255      7.55123        -0.010744     -0.000129      0.002082
      5.01172      8.45087      7.64778        -0.007447     -0.004373      0.035187
      4.97141      9.86067      7.55381         0.003276      0.009663      0.006202
      7.48387      8.51858      7.51769         0.006233      0.014466     -0.001894
      7.46179      9.93231      7.49489         0.023406      0.008817      0.003098
     -6.17933     10.64585      7.47101        -0.004676     -0.008896      0.006271
     -6.18424     12.05159      7.46357        -0.004802     -0.029045      0.003392
     -3.72590     10.65375      7.46641        -0.006098     -0.013571     -0.003306
     -3.71090     12.07237      7.46424        -0.009009     -0.009011     -0.001726
     -1.25372     10.64384      7.47723         0.001862     -0.001249     -0.002249
     -1.24382     12.06096      7.46734        -0.012528     -0.003771     -0.004181
      1.23616     10.60514      7.50087         0.006974      0.001255      0.003525
      1.23898     12.02828      7.47543        -0.004353      0.004097      0.002821
      3.72278     10.58225      7.53751         0.008424      0.003790     -0.000861
      3.71844     11.99908      7.49081         0.021129      0.020580     -0.003334
      6.21120     10.60804      7.49948         0.014074      0.005685     -0.002755
      6.19409     12.03024      7.47537         0.010939      0.007538     -0.005069
      3.71069      7.08427      8.32458        -0.020069      0.013061     -0.016400
    total drift:                                0.000989      0.015864     -0.026688

  FREE ENERGIE OF THE ION-ELECTRON SYSTEM (eV)
  free  energy   TOTEN  =      -653.43685426 eV

  energy  without entropy=     -653.40461125  energy(sigma->0) =     -653.42073275

 d Force = 0.9160414E-03[ 0.182E-03, 0.165E-02]  d Energy = 0.8327889E-03 0.833E-04
 d Force =-0.1208226E+00[-0.126E+00,-0.115E+00]  d Ewald  = 0.1074846E+02-0.109E+02

 Conjugate gradient step on ions:
 trial-energy change:   -0.000833  1 .order   -0.000885   -0.001717   -0.000053
  (g-gl).g = 0.209E-02      g.g   = 0.220E-02  gl.gl    = 0.453E-02
 g(Force)  = 0.215E-02   g(Stress)= 0.527E-04 ortho     = 0.785E-04
 gamma     =   0.46025
 trial     =   0.76866
 opt step  =   0.79924  (harmonic =   0.79322) maximal distance =0.00162225
 next E    =  -653.436855   (d E  =  -0.00083)

 reached required accuracy - stopping structural energy minimisation