 vasp.5.4.4.18Apr17-6-g9f103f2a35 (build Nov  8 2022 18:58:45) complex
 executed on             LinuxGNU date 2023.04.13  19:48:37

 INCAR:
 POTCAR:    PAW_PBE C 08Apr2002
 POTCAR:    PAW_PBE N 08Apr2002
 POTCAR:    PAW_PBE Ge_d 03Jul2007
 POTCAR:    PAW_PBE C 08Apr2002
 POTCAR:    PAW_PBE O 08Apr2002
 POTCAR:    PAW_PBE C 08Apr2002
   VRHFIN =C: s2p2

   TITEL  = PAW_PBE C 08Apr2002
   POMASS =   12.011; ZVAL   =    4.000    mass and valenz
   ENMAX  =  400.000; ENMIN  =  300.000 eV

[...]

   TITEL  = PAW_PBE Ge_d 03Jul2007
   POMASS =   72.610; ZVAL   =   14.000    mass and valenz
   ENMAX  =  310.294; ENMIN  =  232.720 eV

[...]

   TITEL  = PAW_PBE O 08Apr2002
   POMASS =   16.000; ZVAL   =    6.000    mass and valenz
   ENMAX  =  400.000; ENMIN  =  300.000 eV

  PAW_PBE C 08Apr2002                   :
  PAW_PBE N 08Apr2002                   :
  PAW_PBE Ge_d 03Jul2007                :
  PAW_PBE C 08Apr2002                   :
  PAW_PBE O 08Apr2002                   :

 POSCAR: POSCAR-c3n4
  positions in direct lattice
  velocities in cartesian coordinates
 exchange correlation table for  LEXCH =        8
   RHO(1)=    0.500       N(1)  =     2000
   RHO(2)=  100.500       N(2)  =     4000

 ion  position               nearest neighbor table
   1  0.048  0.118  0.474-  26 1.35  46 1.36  25 1.36
   2  0.274  0.513  0.487-  29 1.31  35 1.38   3 1.50
   3  0.182  0.507  0.488-  44 1.31  39 1.37   2 1.50
   4  0.557  0.077  0.479-  30 1.30  27 1.38  48 1.41
   5  0.371  0.458  0.455-  28 1.33  29 1.35  56 1.41
   6  0.043  0.978  0.500-  31 1.31  26 1.35  32 1.41
   7  0.047  0.694  0.518-  33 1.32  54 1.36  34 1.42
   8  0.409  0.950  0.464-  27 1.28  37 1.33
   9  0.023  0.829  0.521-  33 1.34  52 1.37  31 1.37
  10  0.436  0.616  0.513-  38 1.31  35 1.36  56 1.39
  11  0.519  0.911  0.477-  36 1.32  37 1.36  48 1.39
  12  0.116  0.603  0.510-  34 1.29  39 1.38  40 1.38
  13  0.713  0.197  0.498-  41 1.31  42 1.38  30 1.39
  14  0.859  0.364  0.484-  41 1.31  51 1.37  45 1.41
  15  0.477  0.418  0.428-  55 1.30  28 1.32
  16  0.902  0.984  0.475-  46 1.32  43 1.34  32 1.41
  17  0.020  0.432  0.477-  45 1.30  44 1.39  40 1.41
  18  0.673  0.040  0.521-  42 1.31  47 1.36  48 1.43
  19  0.594  0.719  0.512-  50 1.34  38 1.37  49 1.38
  20  0.763  0.852  0.504-  53 1.32  43 1.33  49 1.45
  21  0.634  0.885  0.512-  47 1.32  36 1.35  49 1.44
  22  0.949  0.531  0.496-  51 1.32  54 1.33  40 1.43
  23  0.889  0.836  0.522-  52 1.32  53 1.36  32 1.41
  24  0.543  0.569  0.469-  50 1.32  55 1.35  56 1.42
  25  0.103  0.216  0.471-   1 1.36
  26  0.096  0.074  0.490-   1 1.35   6 1.35
  27  0.463  0.041  0.466-   8 1.28   4 1.38
  28  0.387  0.392  0.429-  15 1.32   5 1.33
  29  0.283  0.443  0.461-   2 1.31   5 1.35
  30  0.621  0.168  0.481-   4 1.30  13 1.39
  31  0.082  0.927  0.511-   6 1.31   9 1.37
  32  0.944  0.933  0.499-  16 1.41   6 1.41  23 1.41
  33  0.072  0.785  0.523-   7 1.32   9 1.34
  34  0.127  0.685  0.527-  12 1.29   7 1.42
  35  0.347  0.599  0.514-  10 1.36   2 1.38  57 2.12
  36  0.551  0.852  0.477-  11 1.32  21 1.35
  37  0.427  0.879  0.466-   8 1.33  11 1.36
  38  0.508  0.695  0.539-  10 1.31  19 1.37
  39  0.194  0.594  0.509-   3 1.37  12 1.38  57 2.00
  40  0.030  0.522  0.494-  12 1.38  17 1.41  22 1.43
  41  0.773  0.289  0.490-  13 1.31  14 1.31
  42  0.736  0.133  0.527-  18 1.31  13 1.38
  43  0.807  0.936  0.469-  20 1.33  16 1.34
  44  0.102  0.429  0.471-   3 1.31  17 1.39
  45  0.937  0.355  0.468-  17 1.30  14 1.41
  46  0.954  0.078  0.461-  16 1.32   1 1.36
  47  0.691  0.971  0.541-  21 1.32  18 1.36
  48  0.582  0.008  0.491-  11 1.39   4 1.41  18 1.43
  49  0.663  0.816  0.515-  19 1.38  21 1.44  20 1.45
  50  0.614  0.658  0.481-  24 1.32  19 1.34
  51  0.865  0.451  0.491-  22 1.32  14 1.37
  52  0.928  0.785  0.532-  23 1.32   9 1.37
  53  0.795  0.800  0.533-  20 1.32  23 1.36
  54  0.960  0.617  0.503-  22 1.33   7 1.36
  55  0.554  0.497  0.445-  15 1.30  24 1.35
  56  0.449  0.547  0.478-  10 1.39   5 1.41  24 1.42
  57  0.316  0.705  0.546-  39 2.00  35 2.12
  58  0.260  0.584  0.679-  59 1.14
  59  0.251  0.557  0.738-  58 1.14

IMPORTANT INFORMATION: All symmetrisations will be switched off!
NOSYMM: (Re-)initialisation of all symmetry stuff for point group C_1.

 KPOINTS: K-Points

Automatic generation of k-mesh.
Space group operators:
 irot       det(A)        alpha          n_x          n_y          n_z        tau_x        tau_y        tau_z
    1     1.000000     0.000000     1.000000     0.000000     0.000000     0.000000     0.000000     0.000000

 Subroutine IBZKPT returns following result:

 Found      5 irreducible k-points:

 Following reciprocal coordinates:
            Coordinates               Weight
  0.000000  0.000000  0.000000      1.000000
  0.333333  0.000000  0.000000      2.000000
  0.000000  0.333333  0.000000      2.000000
  0.333333  0.333333  0.000000      2.000000
 -0.333333  0.333333  0.000000      2.000000

 Following cartesian coordinates:
            Coordinates               Weight
  0.000000  0.000000  0.000000      1.000000
  0.024277  0.014368  0.000000      2.000000
  0.000396  0.028736  0.000000      2.000000
  0.024673  0.043104  0.000000      2.000000
 -0.023881  0.014368  0.000000      2.000000

 SYSTEM =  unknown system
 POSCAR =  POSCAR-c3n4

 Startparameter for this run:
   NWRITE =      2    write-flag & timer
   PREC   = normal    normal or accurate (medium, high low for compatibility)
   ISTART =      0    job   : 0-new  1-cont  2-samecut
   ICHARG =      2    charge: 1-file 2-atom 10-const
   ISPIN  =      2    spin polarized calculation?
   LNONCOLLINEAR =      F non collinear calculations
   LSORBIT =      F    spin-orbit coupling
   INIWAV =      1    electr: 0-lowe 1-rand  2-diag
   LASPH  =      F    aspherical Exc in radial PAW
   METAGGA=      F    non-selfconsistent MetaGGA calc.

 Electronic Relaxation 1
   ENCUT  =  440.0 eV  32.34 Ry    5.69 a.u.  28.42 27.89 30.79*2*pi/ulx,y,z
   ENINI  =  440.0     initial cutoff
   ENAUG  =  644.9 eV  augmentation charge cutoff
   NELM   =    200;   NELMIN=  2; NELMDL= -5     # of ELM steps
   EDIFF  = 0.1E-03   stopping-criterion for ELM
   LREAL  =      F    real-space projection
   NLSPLINE    = F    spline interpolate recip. space projectors
   LCOMPAT=      F    compatible to vasp.4.4
   GGA_COMPAT  = T    GGA compatible to vasp.4.4-vasp.4.6
   LMAXPAW     = -100 max onsite density
   LMAXMIX     =    2 max onsite mixed and CHGCAR
   VOSKOWN=      0    Vosko Wilk Nusair interpolation
   ROPT   =    0.00000   0.00000   0.00000   0.00000
   ROPT   =    0.00000
 Ionic relaxation
   EDIFFG = -.1E-01   stopping-criterion for IOM
   NSW    =      0    number of steps for IOM
   NBLOCK =      1;   KBLOCK =      1    inner block; outer block
   IBRION =     -1    ionic relax: 0-MD 1-quasi-New 2-CG
   NFREE  =      0    steps in history (QN), initial steepest desc. (CG)
   ISIF   =      2    stress and relaxation
   IWAVPR =     10    prediction:  0-non 1-charg 2-wave 3-comb
   ISYM   =      0    0-nonsym 1-usesym 2-fastsym
   LCORR  =      T    Harris-Foulkes like correction to forces

   POTIM  = 0.5000    time-step for ionic-motion
   TEIN   =    0.0    initial temperature
   TEBEG  =    0.0;   TEEND  =   0.0 temperature during run
   SMASS  =  -3.00    Nose mass-parameter (am)
   estimated Nose-frequenzy (Omega)   =  0.10E-29 period in steps =****** mass=  -0.631E-26a.u.
   SCALEE = 1.0000    scale energy and forces
   NPACO  =    256;   APACO  = 16.0  distance and # of slots for P.C.
   PSTRESS=    0.0 pullay stress

  Mass of Ions in am
   POMASS =  12.01 14.00 72.61 12.01 16.00
  Ionic Valenz
   ZVAL   =   4.00  5.00 14.00  4.00  6.00
  Atomic Wigner-Seitz radii
  virtual crystal weights
   VCA    =   1.00  1.00  1.00  1.00  1.00
   NELECT =     280.0000    total number of electrons
   NUPDOWN=      -1.0000    fix difference up-down

 DOS related values:
   EMIN   = -14.00;   EMAX   =  6.00  energy-range for DOS
   EFERMI =   0.00
   ISMEAR =     0;   SIGMA  =   0.04  broadening in eV -4-tet -1-fermi 0-gaus

 Electronic relaxation 2 (details)
   IALGO  =     58    algorithm
   LDIAG  =      T    sub-space diagonalisation (order eigenvalues)
   LSUBROT=      F    optimize rotation matrix (better conditioning)
   TURBO    =      0    0=normal 1=particle mesh
   IRESTART =      0    0=no restart 2=restart with 2 vectors
   NREBOOT  =      0    no. of reboots
   NMIN     =      0    reboot dimension
   EREF     =   0.00    reference energy to select bands
   IMIX   =      4    mixing-type and parameters
     AMIX     =   0.25;   BMIX     =  0.00
     AMIX_MAG =   1.00;   BMIX_MAG =  0.00
     AMIN     =   0.10
     WC   =   100.;   INIMIX=   1;  MIXPRE=   1;  MAXMIX= -45

 Intra band minimization:
   WEIMIN = 0.0000     energy-eigenvalue tresh-hold
   EBREAK =  0.15E-06  absolut break condition
   DEPER  =   0.30     relativ break condition

   TIME   =   0.40     timestep for ELM

  volume/ion in A,a.u.               =      70.55       476.07
  Fermi-wavevector in a.u.,A,eV,Ry     =   0.665811  1.258200  6.031519  0.443304
  Thomas-Fermi vector in A             =   1.739920

 Write flags
   LWAVE        =      F    write WAVECAR
   LDOWNSAMPLE  =      F    k-point downsampling of WAVECAR
   LCHARG       =      F    write CHGCAR
   LVTOT        =      F    write LOCPOT, total local potential
   LVHAR        =      F    write LOCPOT, Hartree potential only
   LELF         =      F    write electronic localiz. function (ELF)
   LORBIT       =     11    0 simple, 1 ext, 2 COOP (PROOUT), +10 PAW based schemes

 Dipole corrections
   LMONO  =      F    monopole corrections only (constant potential shift)
   LDIPOL =      F    correct potential (dipole corrections)
   IDIPOL =      0    1-x, 2-y, 3-z, 4-all directions
   EPSILON=  1.0000000 bulk dielectric constant

 Exchange correlation treatment:
   GGA     =    --    GGA type
   VOSKOWN=      0    Vosko Wilk Nusair interpolation
   LHFCALC =     F    Hartree Fock is set to
   LHFONE  =     F    Hartree Fock one center treatment
   AEXX    =    0.0000 exact exchange contribution

 Linear response parameters
   LEPSILON=     F    determine dielectric tensor
   LRPA    =     F    only Hartree local field effects (RPA)
   LNABLA  =     F    use nabla operator in PAW spheres
   LVEL    =     F    velocity operator in full k-point grid
   LINTERFAST=   F  fast interpolation
   KINTER  =     0    interpolate to denser k-point grid
   CSHIFT  =0.1000    complex shift for real part using Kramers Kronig
   OMEGAMAX=  -1.0    maximum frequency
   DEG_THRESHOLD= 0.2000000E-02 threshold for treating states as degnerate
   RTIME   =   -0.100 relaxation time in fs
  (WPLASMAI=    0.000 imaginary part of plasma frequency in eV, 0.658/RTIME)
   DFIELD  = 0.0000000 0.0000000 0.0000000 field for delta impulse in time

 Orbital magnetization related:
   ORBITALMAG=     F  switch on orbital magnetization
   LCHIMAG   =     F  perturbation theory with respect to B field
   DQ        =  0.001000  dq finite difference perturbation B field
   LLRAUG    =     F  two centre corrections for induced B field

[...]
   42        1.270   2.615   0.000   3.886
   43        1.271   2.652   0.000   3.923
   44        1.275   2.598   0.000   3.873
   45        1.276   2.592   0.000   3.869
   46        1.273   2.620   0.000   3.893
   47        1.271   2.634   0.000   3.905
   48        1.226   2.733   0.000   3.959
   49        1.218   2.719   0.000   3.937
   50        1.272   2.650   0.000   3.922
   51        1.275   2.621   0.000   3.896
   52        1.271   2.624   0.000   3.895
   53        1.269   2.639   0.000   3.908
   54        1.268   2.626   0.000   3.894
   55        1.272   2.631   0.000   3.903
   56        1.227   2.727   0.000   3.954
   57        1.348   0.675  10.049  12.072
   58        1.030   1.462   0.000   2.492
   59        1.643   3.526   0.000   5.169
tot         65.101 131.356  10.049 206.507

 magnetization (x)

[...]

         DFTD3 V3.0 Rev 1
 IVDW         = 12
 DF pbe
 parameters
 VDW_S6       =    1.0000
 VDW_S8       =    0.7875
 VDW_A1       =    0.4289
 VDW_A2       =    4.4407
 k1-k3        =   16.0000    1.3333   -4.0000
 VDW_RADIUS   =   50.2022 A
 VDW_CNRADIUS =   21.1671 A
 Edisp (eV)   -3.51947

 E6    (eV) :    -2.4517
 E8    (eV) :    -1.0678
 % E8        : 30.34

  FORCE on cell =-STRESS in cart. coord.  units (eV):
  Direction    XX          YY          ZZ          XY          YZ          ZX
  Alpha Z    89.52339    89.52339    89.52339
  Ewald   34730.65947 34857.51917-37985.23180  1904.66579  1279.20793   253.64465
  Hartree 36510.92231 36242.42134-28818.54474  1657.29810   815.73439    32.98027
  E(xc)   -1167.07469 -1164.99996 -1192.57453     0.68363     1.99052     1.29544
  Local  -74624.98943-74408.74207 63011.80788 -3549.78947 -2062.12683  -266.85389
  n-local  -481.26354  -482.30398  -459.41140     0.75713     1.75091    -3.72202
  augment   152.31786   152.02355   153.35380    -0.04735     0.26712     0.09196
  Kinetic  4781.25245  4702.81695  5194.23420   -18.53899   -36.58582   -17.41599
  Fock        0.00000     0.00000     0.00000     0.00000     0.00000     0.00000
  vdW        -1.11368    -1.28268    -0.24148    -0.10769     0.06121     0.05617
  Total      -9.76585   -13.02429    -7.08468    -5.07886     0.29943     0.07658
  in kB      -3.75916    -5.01343    -2.72710    -1.95500     0.11526     0.02948

 VOLUME and BASIS-vectors are now :
  energy-cutoff  :      440.00
  volume of cell :     4162.27
      direct lattice vectors                 reciprocal lattice vectors
    16.612109082 -0.228888569  0.000000000     0.060691974  0.035920095 -0.000000000
    -8.306054541 14.034229193  0.000000000     0.000989844  0.071840191 -0.000000000
     0.000000000  0.000000000 18.000000000    -0.000000000 -0.000000000  0.055555556

  length of vectors
    16.613685868 16.307977528 18.000000000     0.070524953  0.071847009  0.055555556

 FORCES acting on ions:
    Electron-Ion                     Ewald-Force                    Non-Local-Force
   -.542E+02 -.114E+03 0.550E+02   0.538E+02 0.115E+03 -.549E+02   0.336E+00 -.257E+00 -.137E+00
   0.304E+02 0.132E+03 0.537E+02   -.338E+02 -.134E+03 -.544E+02   0.345E+01 0.177E+01 0.761E+00
   -.411E+02 0.114E+03 0.704E+02   0.428E+02 -.116E+03 -.711E+02   -.168E+01 0.192E+01 0.711E+00
   0.152E+03 -.110E+03 0.519E+02   -.154E+03 0.113E+03 -.523E+02   0.142E+01 -.316E+01 0.321E+00
   -.328E+02 0.164E+03 0.973E+02   0.317E+02 -.167E+03 -.985E+02   0.112E+01 0.304E+01 0.113E+01
   -.125E+03 -.817E+02 -.132E+01   0.129E+03 0.824E+02 0.150E+01   -.315E+01 -.743E+00 -.194E+00
   0.571E+02 -.568E+02 -.360E+02   -.590E+02 0.566E+02 0.362E+02   0.201E+01 0.230E+00 -.161E+00
   0.300E+03 -.138E+02 0.105E+03   -.307E+03 0.117E+02 -.105E+03   0.711E+01 0.210E+01 0.175E-01
   -.572E+02 -.368E+01 -.396E+02   0.564E+02 0.310E+01 0.382E+02   0.854E+00 0.637E+00 0.137E+01
   -.362E+02 0.532E+02 -.656E+02   0.363E+02 -.507E+02 0.669E+02   -.107E+00 -.260E+01 -.132E+01
   0.737E+02 -.184E+02 0.980E+02   -.741E+02 0.157E+02 -.981E+02   0.382E+00 0.277E+01 0.765E-01
   0.504E+02 -.274E+02 -.703E+01   -.520E+02 0.305E+02 0.782E+01   0.167E+01 -.313E+01 -.792E+00
   0.402E+02 -.804E+02 -.108E+02   -.394E+02 0.782E+02 0.955E+01   -.881E+00 0.217E+01 0.121E+01
   0.722E+02 0.436E+02 0.346E+02   -.707E+02 -.421E+02 -.332E+02   -.150E+01 -.147E+01 -.137E+01
   -.201E+03 0.256E+03 0.166E+03   0.206E+03 -.262E+03 -.168E+03   -.481E+01 0.610E+01 0.188E+01
   0.255E+01 -.707E+02 0.942E+02   -.469E+01 0.728E+02 -.951E+02   0.220E+01 -.213E+01 0.870E+00
   -.106E+02 0.102E+03 0.798E+02   0.105E+02 -.105E+03 -.808E+02   0.159E+00 0.293E+01 0.102E+01
   -.317E+02 -.858E+02 -.970E+02   0.340E+02 0.876E+02 0.981E+02   -.238E+01 -.186E+01 -.119E+01
   -.905E+02 0.348E+02 -.661E+02   0.900E+02 -.365E+02 0.651E+02   0.422E+00 0.170E+01 0.103E+01
   -.272E+02 0.341E+02 -.618E+01   0.314E+02 -.324E+02 0.587E+01   -.424E+01 -.170E+01 0.318E+00
   -.297E+02 -.215E+02 -.481E+02   0.275E+02 0.243E+02 0.477E+02   0.215E+01 -.286E+01 0.342E+00
   0.144E+03 0.795E+01 0.187E+02   -.148E+03 -.763E+01 -.184E+02   0.351E+01 -.306E+00 -.192E+00
   -.316E+02 0.850E+02 -.698E+02   0.322E+02 -.880E+02 0.706E+02   -.622E+00 0.307E+01 -.845E+00
   -.158E+03 0.865E+02 0.634E+02   0.161E+03 -.860E+02 -.632E+02   -.344E+01 -.506E+00 -.145E+00
   -.693E+02 -.170E+03 0.558E+02   0.717E+02 0.202E+03 -.567E+02   -.238E+01 -.320E+02 0.869E+00
   -.293E+03 -.180E+03 -.676E+01   0.324E+03 0.198E+03 0.100E+02   -.309E+02 -.176E+02 -.325E+01
   0.336E+03 -.216E+03 0.102E+03   -.360E+03 0.239E+03 -.106E+03   0.239E+02 -.232E+02 0.367E+01
   -.538E+02 0.355E+03 0.223E+03   0.418E+02 -.387E+03 -.235E+03   0.120E+02 0.320E+02 0.120E+02
   0.330E+02 0.316E+03 0.166E+03   -.481E+02 -.349E+03 -.178E+03   0.151E+02 0.332E+02 0.117E+02
   0.251E+03 -.249E+03 0.775E+02   -.273E+03 0.277E+03 -.834E+02   0.215E+02 -.281E+02 0.584E+01
   -.290E+03 -.152E+03 -.284E+02   0.324E+03 0.163E+03 0.299E+02   -.343E+02 -.119E+02 -.141E+01
   -.658E+02 -.270E+02 0.663E+01   0.657E+02 0.269E+02 -.670E+01   0.507E-01 0.534E-01 0.620E-01
   -.105E+03 -.154E+03 -.606E+02   0.128E+03 0.173E+03 0.633E+02   -.233E+02 -.198E+02 -.268E+01
   0.136E+02 -.247E+03 -.127E+03   -.604E+00 0.277E+03 0.136E+03   -.130E+02 -.295E+02 -.970E+01
   -.195E+02 0.329E+02 -.577E+02   0.577E+01 -.194E+02 0.651E+02   0.137E+02 -.135E+02 -.739E+01
   0.348E+02 0.948E+02 0.218E+03   -.359E+02 -.127E+03 -.232E+03   0.112E+01 0.318E+02 0.137E+02
   0.199E+03 0.741E+02 0.183E+03   -.206E+03 -.104E+03 -.188E+03   0.632E+01 0.295E+02 0.439E+01
   -.340E+01 -.466E+02 -.306E+03   -.126E+02 0.705E+02 0.327E+03   0.161E+02 -.239E+02 -.213E+02
   0.511E+02 -.942E+01 0.308E+02   -.411E+02 0.226E+02 -.279E+02   -.999E+01 -.132E+02 -.283E+01
   0.818E+02 0.388E+02 0.434E+02   -.848E+02 -.407E+02 -.444E+02   0.298E+01 0.196E+01 0.958E+00
   0.160E+03 -.619E+02 0.187E+02   -.179E+03 0.702E+02 -.201E+02   0.184E+02 -.826E+01 0.141E+01
   -.162E+03 -.156E+03 -.189E+03   0.192E+03 0.170E+03 0.202E+03   -.301E+02 -.137E+02 -.130E+02
   0.764E+02 -.121E+03 0.251E+03   -.105E+03 0.136E+03 -.267E+03   0.283E+02 -.152E+02 0.166E+02
   -.688E+02 0.283E+03 0.155E+03   0.830E+02 -.315E+03 -.165E+03   -.141E+02 0.328E+02 0.103E+02
   -.371E+02 0.243E+03 0.150E+03   0.471E+02 -.277E+03 -.160E+03   -.101E+02 0.333E+02 0.918E+01
   0.120E+03 -.202E+03 0.180E+03   -.148E+03 0.224E+03 -.191E+03   0.276E+02 -.211E+02 0.112E+02
   -.142E+03 -.142E+03 -.301E+03   0.171E+03 0.151E+03 0.321E+03   -.290E+02 -.882E+01 -.202E+02
   0.684E+02 -.958E+02 0.264E+02   -.674E+02 0.976E+02 -.266E+02   -.970E+00 -.174E+01 0.225E+00
   -.773E+02 0.760E+01 -.925E+02   0.799E+02 -.455E+01 0.964E+02   -.264E+01 -.303E+01 -.385E+01
   -.305E+03 0.600E+02 0.109E+03   0.339E+03 -.501E+02 -.119E+03   -.341E+02 -.999E+01 0.967E+01
   0.334E+03 0.137E+02 0.118E+02   -.370E+03 -.142E+02 -.108E+02   0.360E+02 0.482E+00 -.866E+00
   -.892E+01 0.239E+03 -.147E+03   0.890E+01 -.273E+03 0.157E+03   0.395E-01 0.347E+02 -.950E+01
   -.625E+02 0.235E+03 -.220E+03   0.584E+02 -.266E+03 0.238E+03   0.418E+01 0.312E+02 -.176E+02
   0.296E+03 -.114E+02 0.257E+02   -.331E+03 0.171E+02 -.275E+02   0.351E+02 -.569E+01 0.191E+01
   -.348E+03 0.128E+03 0.137E+03   0.384E+03 -.123E+03 -.140E+03   -.353E+02 -.473E+01 0.264E+01
   -.913E+02 0.121E+03 0.558E+02   0.926E+02 -.122E+03 -.572E+02   -.129E+01 0.126E+01 0.141E+01
   0.158E+03 -.485E+03 -.474E+03   -.157E+03 0.507E+03 0.490E+03   -.297E+00 -.223E+02 -.155E+02
   0.197E+02 -.219E+02 -.134E+03   -.218E+02 0.308E+02 0.109E+03   0.203E+01 -.884E+01 0.248E+02
   -.192E+02 0.124E+03 -.584E+03   0.239E+02 -.145E+03 0.641E+03   -.469E+01 0.210E+02 -.576E+02
   0.805E+01 0.454E+02 0.394E+02   -.675E-13 -.455E-12 -.909E-12   -.802E+01 -.453E+02 -.394E+02

 POSITION                                       TOTAL-FORCE (eV/Angst)
     -0.17883      1.64442      8.52774        -0.009319     -0.026665     -0.037076
      0.29749      7.13728      8.76520         0.046489     -0.006143     -0.016363
     -1.19772      7.07985      8.78291        -0.007394     -0.001320     -0.005825
      8.60887      0.96006      8.62070        -0.015687     -0.020722     -0.033206
      2.35433      6.34348      8.19788        -0.018984     -0.004988     -0.029202
     -7.41223     13.71369      8.99893        -0.027758      0.015334     -0.010984
     -4.98127      9.73450      9.32383         0.017556      0.046714      0.027223
     -1.09384     13.23219      8.35075        -0.023863      0.006111     -0.038157
     -6.50061     11.63197      9.37542        -0.004044      0.029428      0.028463
      2.12822      8.54571      9.23365         0.008885     -0.031675     -0.018825
      1.05717     12.66741      8.59417        -0.021976      0.008981      0.005741
     -3.08433      8.43558      9.18888         0.008198      0.008305      0.012138
     10.21397      2.59813      8.96831        -0.029119     -0.004975     -0.014172
     11.23983      4.91122      8.71200         0.031438      0.027160      0.022693
      4.45116      5.75144      7.71165         0.012715      0.048793      0.019755
      6.80151     13.60780      8.54403         0.025798     -0.037448     -0.023923
     -3.25673      6.06360      8.58015         0.023703     -0.024075      0.020658
     10.84922      0.41286      9.37723        -0.035509      0.007034     -0.014831
      3.89450      9.96097      9.22343        -0.021544      0.013089      0.009650
      5.59095     11.78471      9.07928         0.011614     -0.024469      0.010472
      3.18459     12.27663      9.21637        -0.028038     -0.017464     -0.006056
     11.35594      7.22863      8.92773         0.028330      0.005134      0.041754
      7.81732     11.53430      9.38859         0.003580      0.012937      0.014577
      4.29045      7.86496      8.43883        -0.004429      0.009890     -0.004080
     -0.08855      3.00419      8.47863        -0.012666     -0.016199     -0.019929
      0.97385      1.01612      8.82658         0.004252      0.014520     -0.002975
      7.34115      0.47240      8.39368        -0.022033      0.072472     -0.044898
      3.17278      5.41591      7.71359         0.028060     -0.015527     -0.012913
      1.02185      6.14995      8.29214        -0.013480      0.035192     -0.038893
      8.91095      2.22053      8.65055        -0.033791      0.051726     -0.048989
     -6.34149     12.98449      9.19918         0.064968      0.013300      0.012291
      7.92643     12.87924      8.97479        -0.011125     -0.001666     -0.005214
     -5.32052     11.00616      9.40686         0.085857     -0.067173      0.027754
     -3.58344      9.58583      9.49085        -0.038657      0.007146     -0.024944
      0.78190      8.32703      9.25775        -0.019010     -0.047994      0.011892
      2.07976     11.83097      8.58980        -0.002876      0.021536      0.037776
     -0.21307     12.23671      8.38291        -0.016487      0.043807     -0.008710
      2.65541      9.64245      9.71099         0.001611      0.029264      0.014939
     -1.71421      8.29481      9.15468         0.028410      0.035214      0.031973
     -3.83063      7.31646      8.88536        -0.040712     -0.011775      0.026952
     10.43304      3.87955      8.81776        -0.061417     -0.005397     -0.001080
     11.12553      1.69336      9.48234         0.018687      0.040197      0.012941
      5.63740     12.94928      8.43465         0.013613     -0.032928     -0.017095
     -1.87288      6.00254      8.48277        -0.007896     -0.037354     -0.019766
     12.61179      4.77442      8.42814        -0.005424     -0.047967      0.016703
     15.20664      0.87014      8.29123         0.009367     -0.044775     -0.075058
      3.41390     13.46410      9.73877         0.004901      0.016704     -0.009139
      9.59961     -0.02078      8.84369        -0.014240      0.040356     -0.008447
      4.23789     11.29899      9.27218        -0.009363      0.007322      0.013689
      4.73373      9.09032      8.65631         0.007267     -0.013614     -0.006607
     10.62788      6.12585      8.84378         0.010078     -0.000959      0.064779
      8.89838     10.80285      9.58289         0.016861     -0.021261      0.042752
      6.56294     11.05222      9.59262         0.048946     -0.035339      0.046674
     10.82659      8.44515      9.06039         0.023824     -0.004129      0.045878
      5.07302      6.85471      8.00596         0.009578     -0.071483     -0.040941
      2.91031      7.57648      8.60828        -0.024197     -0.038319     -0.031295
     -0.60808      9.82038      9.82287        -0.001316      0.003955      0.031214
     -0.53471      8.14322     12.21545         0.000634      0.023003      0.054690
     -0.44651      7.75463     13.28394        -0.012865      0.019178     -0.036432
    total drift:                                0.030356      0.032995      0.012696

  FREE ENERGIE OF THE ION-ELECTRON SYSTEM (eV)
  free  energy   TOTEN  =      -489.06097522 eV

  energy  without entropy=     -489.06097519  energy(sigma->0) =     -489.06097521

 total charge

[...]

 magnetization (x)

# of ion       s       p       d       tot
    1        0.010   0.061   0.000   0.071
    2        0.000   0.004   0.000   0.004
    3        0.000   0.001   0.000   0.001
    4        0.015   0.033   0.000   0.048
    5        0.012   0.027   0.000   0.039
    6       -0.001   0.009   0.000   0.008
    7        0.000   0.001   0.000   0.001
    8        0.092   0.313   0.000   0.405
    9        0.000   0.004   0.000   0.004
   10        0.001   0.003   0.000   0.003
   11        0.009   0.023   0.000   0.032
   12        0.000   0.000   0.000   0.000
   13        0.000   0.002   0.000   0.003
   14        0.000   0.000   0.000   0.000
   15        0.105   0.330   0.000   0.436
   16       -0.001   0.005   0.000   0.003
   17       -0.000   0.000   0.000   0.000
   18        0.000   0.002   0.000   0.003
   19        0.000   0.002   0.000   0.002
   20        0.000   0.001   0.000   0.001
   21        0.000   0.002   0.000   0.002
   22        0.000   0.000   0.000   0.000
   23        0.000   0.002   0.000   0.002
   24        0.014   0.028   0.000   0.042
   25       -0.030  -1.061   0.000  -1.090
   26       -0.017  -0.153   0.000  -0.170
   27        0.035   0.035   0.000   0.070
   28        0.033   0.028   0.000   0.061
   29        0.001  -0.001   0.000   0.000
   30        0.001  -0.003   0.000  -0.003
   31       -0.002  -0.042   0.000  -0.043
   32       -0.001  -0.025   0.000  -0.026
   33       -0.000  -0.009   0.000  -0.010
   34        0.000  -0.001   0.000  -0.001
   35       -0.000  -0.001   0.000  -0.001
   36        0.001   0.000   0.000   0.001
   37        0.021   0.019   0.000   0.039
   38       -0.000  -0.002   0.000  -0.002
   39       -0.000  -0.001   0.000  -0.001
   40       -0.000  -0.001   0.000  -0.001
   41        0.000  -0.001   0.000  -0.001
   42       -0.000  -0.001   0.000  -0.001
   43       -0.000  -0.006   0.000  -0.006
   44       -0.000   0.002   0.000   0.001
   45        0.000   0.001   0.000   0.001
   46       -0.011  -0.061   0.000  -0.073
   47       -0.000  -0.001   0.000  -0.001
   48        0.001  -0.001   0.000  -0.001
   49        0.000  -0.000   0.000  -0.000
   50        0.001  -0.003   0.000  -0.002
   51       -0.000  -0.002   0.000  -0.002
   52       -0.000  -0.008   0.000  -0.008
   53       -0.000  -0.003   0.000  -0.003
   54       -0.000  -0.005   0.000  -0.005
   55        0.035   0.023   0.000   0.058
   56        0.001  -0.004   0.000  -0.003
   57       -0.000   0.010   0.000   0.010
   58        0.000   0.001   0.000   0.001
   59        0.000  -0.000   0.000  -0.000
tot          0.324  -0.424   0.000  -0.100