 vasp.5.4.4.18Apr17-6-g9f103f2a35 (build Nov  8 2022 18:58:45) complex
 executed on             LinuxGNU date 2023.04.13  15:54:02

 INCAR:
 POTCAR:    PAW_PBE C 08Apr2002
 POTCAR:    PAW_PBE N 08Apr2002
 POTCAR:    PAW_PBE Ge_d 03Jul2007
 POTCAR:    PAW_PBE C 08Apr2002
 POTCAR:    PAW_PBE O 08Apr2002
 POTCAR:    PAW_PBE C 08Apr2002
   VRHFIN =C: s2p2

   TITEL  = PAW_PBE C 08Apr2002
   POMASS =   12.011; ZVAL   =    4.000    mass and valenz
   ENMAX  =  400.000; ENMIN  =  300.000 eV

[...]

   TITEL  = PAW_PBE Ge_d 03Jul2007
   POMASS =   72.610; ZVAL   =   14.000    mass and valenz
   ENMAX  =  310.294; ENMIN  =  232.720 eV

[...]

   TITEL  = PAW_PBE O 08Apr2002
   POMASS =   16.000; ZVAL   =    6.000    mass and valenz
   ENMAX  =  400.000; ENMIN  =  300.000 eV

  PAW_PBE C 08Apr2002                   :
  PAW_PBE N 08Apr2002                   :
  PAW_PBE Ge_d 03Jul2007                :
  PAW_PBE C 08Apr2002                   :
  PAW_PBE O 08Apr2002                   :

 POSCAR: POSCAR-c3n4
  positions in cartesian coordinates
 exchange correlation table for  LEXCH =        8
   RHO(1)=    0.500       N(1)  =     2000
   RHO(2)=  100.500       N(2)  =     4000

 ion  position               nearest neighbor table
   1  0.106  0.214  0.436-  26 1.07  46 1.07  25 1.13   6 1.81  16 1.81   3 1.95   2 1.97
   2  0.288  0.399  0.443-  29 1.06  35 1.11  25 1.15   5 1.83  10 1.86   1 1.97   3 2.00
   3  0.104  0.392  0.437-  44 1.05  39 1.10  25 1.14  17 1.82  12 1.85   1 1.95   2 2.00
   4  0.447  0.064  0.516-  30 1.06  27 1.07  48 1.13  13 1.81   8 1.81  18 1.94  11 1.94
   5  0.453  0.401  0.422-  28 1.06  29 1.07  56 1.14  15 1.81   2 1.83  10 1.95  24 1.97
   6  0.112  0.053  0.459-  26 1.06  31 1.07  32 1.12   9 1.80   1 1.81  16 1.91  23 1.95
   7  0.096  0.712  0.494-  54 1.06  34 1.09  33 1.12  12 1.79  22 1.82   9 1.93   8 1.98
   8  0.284  0.890  0.511-  27 1.07  37 1.08  33 1.13   4 1.81  11 1.82   9 1.97   7 1.98
   9  0.109  0.895  0.508-  31 1.06  52 1.08  33 1.15   6 1.80  23 1.81   7 1.93   8 1.97
  10  0.448  0.548  0.512-  38 1.06  56 1.08  35 1.09  19 1.80   2 1.86  24 1.89   5 1.95  57 2.18

  11  0.445  0.885  0.499-  37 1.07  36 1.07  48 1.11  21 1.82   8 1.82  18 1.94   4 1.94
  12  0.087  0.542  0.491-  34 1.06  40 1.08  39 1.09   7 1.79   3 1.85  22 1.91  17 1.93  57 2.19

  13  0.616  0.223  0.483-  42 1.08  30 1.08  41 1.12   4 1.81  18 1.81  15 1.95  14 1.98
  14  0.780  0.390  0.410-  45 1.08  51 1.09  41 1.12  17 1.80  22 1.80  15 1.96  13 1.98
  15  0.610  0.394  0.445-  28 1.07  55 1.07  41 1.16  24 1.81   5 1.81  13 1.95  14 1.96
  16  0.940  0.052  0.471-  46 1.05  43 1.07  32 1.12  20 1.80   1 1.81   6 1.91  23 1.94
  17  0.941  0.387  0.404-  45 1.06  44 1.07  40 1.14  14 1.80   3 1.82  12 1.93  22 1.96
  18  0.623  0.066  0.522-  42 1.06  47 1.07  48 1.13  13 1.81  21 1.81   4 1.94  11 1.94
  19  0.613  0.711  0.541-  50 1.06  38 1.09  49 1.13  10 1.80  24 1.82  20 1.95  21 2.00
  20  0.790  0.897  0.533-  43 1.06  53 1.07  49 1.16  16 1.80  23 1.80  19 1.95  21 1.97
  21  0.609  0.892  0.531-  47 1.07  36 1.08  49 1.15  18 1.81  11 1.82  20 1.97  19 2.00
  22  0.938  0.563  0.430-  51 1.05  54 1.08  40 1.14  14 1.80   7 1.82  12 1.91  17 1.96
  23  0.954  0.902  0.545-  52 1.07  53 1.07  32 1.12  20 1.80   9 1.81  16 1.94   6 1.95
  24  0.621  0.555  0.500-  55 1.05  50 1.06  56 1.13  15 1.81  19 1.82  10 1.89   5 1.97
  25  0.167  0.335  0.435-   1 1.13   3 1.14   2 1.15
  26  0.165  0.161  0.431-   6 1.06   1 1.07
  27  0.336  0.002  0.532-   8 1.07   4 1.07
  28  0.512  0.352  0.402-   5 1.06  15 1.07
  29  0.345  0.361  0.400-   2 1.06   5 1.07
  30  0.506  0.177  0.503-   4 1.06  13 1.08
  31  0.159  0.988  0.457-   9 1.06   6 1.07
  32  0.002  0.002  0.493-  16 1.12  23 1.12   6 1.12
  33  0.165  0.831  0.510-   7 1.12   8 1.13   9 1.15
  34  0.134  0.645  0.528-  12 1.06   7 1.09  57 2.10
  35  0.334  0.491  0.501-  10 1.09   2 1.11  57 1.65
  36  0.503  0.831  0.500-  11 1.07  21 1.08
  37  0.333  0.829  0.489-  11 1.07   8 1.08
  38  0.499  0.648  0.555-  10 1.06  19 1.09  57 2.11
  39  0.142  0.484  0.495-  12 1.09   3 1.10  57 1.66
  40  0.988  0.496  0.446-  12 1.08  22 1.14  17 1.14
  41  0.667  0.330  0.439-  13 1.12  14 1.12  15 1.16
  42  0.680  0.178  0.505-  18 1.06  13 1.08
  43  0.827  0.986  0.478-  20 1.06  16 1.07
  44  0.011  0.348  0.389-   3 1.05  17 1.07
  45  0.830  0.330  0.389-  17 1.06  14 1.08
  46  0.993  0.161  0.445-  16 1.05   1 1.07
  47  0.669  0.005  0.549-  21 1.07  18 1.07
  48  0.505  0.004  0.508-  11 1.11  18 1.13   4 1.13
  49  0.668  0.832  0.544-  19 1.13  21 1.15  20 1.16
  50  0.675  0.666  0.522-  19 1.06  24 1.06
  51  0.832  0.507  0.406-  22 1.05  14 1.09
  52  0.016  0.853  0.559-  23 1.07   9 1.08
  53  0.849  0.860  0.576-  20 1.07  23 1.07
  54  0.004  0.677  0.444-   7 1.06  22 1.08
  55  0.668  0.491  0.494-  24 1.05  15 1.07
  56  0.506  0.502  0.477-  10 1.08  24 1.13   5 1.14
  57  0.287  0.593  0.568-  35 1.65  39 1.66  34 2.10  38 2.11  10 2.18  12 2.19
  58  0.287  0.593  0.966-  59 0.93
  59  0.232  0.530  0.023-  58 0.93

IMPORTANT INFORMATION: All symmetrisations will be switched off!
NOSYMM: (Re-)initialisation of all symmetry stuff for point group C_1.

 KPOINTS: K-Points

Automatic generation of k-mesh.
Space group operators:
 irot       det(A)        alpha          n_x          n_y          n_z        tau_x        tau_y        tau_z
    1     1.000000     0.000002     1.000000     0.000000     0.000000     0.000000     0.000000     0.000000

 Subroutine IBZKPT returns following result:

 Found      5 irreducible k-points:

 Following reciprocal coordinates:
            Coordinates               Weight
  0.000000  0.000000  0.000000      1.000000
  0.333333  0.000000  0.000000      2.000000
  0.000000  0.333333  0.000000      2.000000
  0.333333  0.333333  0.000000      2.000000
 -0.333333  0.333333  0.000000      2.000000

 Following cartesian coordinates:
            Coordinates               Weight
  0.000000  0.000000  0.000000      1.000000
  0.024277  0.014368  0.000000      2.000000
  0.000396  0.028736  0.000000      2.000000
  0.024673  0.043104  0.000000      2.000000
 -0.023881  0.014368  0.000000      2.000000

 TETIRR: Found     24 inequivalent tetrahedra from       54

 SYSTEM =  unknown system
 POSCAR =  POSCAR-c3n4

 Startparameter for this run:
   NWRITE =      2    write-flag & timer
   PREC   = normal    normal or accurate (medium, high low for compatibility)
   ISTART =      0    job   : 0-new  1-cont  2-samecut
   ICHARG =      2    charge: 1-file 2-atom 10-const
   ISPIN  =      2    spin polarized calculation?
   LNONCOLLINEAR =      F non collinear calculations
   LSORBIT =      F    spin-orbit coupling
   INIWAV =      1    electr: 0-lowe 1-rand  2-diag
   LASPH  =      F    aspherical Exc in radial PAW
   METAGGA=      F    non-selfconsistent MetaGGA calc.

 Electronic Relaxation 1
   ENCUT  =  440.0 eV  32.34 Ry    5.69 a.u.  18.94 18.59 20.52*2*pi/ulx,y,z
   ENINI  =  440.0     initial cutoff
   ENAUG  =  644.9 eV  augmentation charge cutoff
   NELM   =    100;   NELMIN=  2; NELMDL= -5     # of ELM steps
   EDIFF  = 0.1E-03   stopping-criterion for ELM
   LREAL  =      F    real-space projection
   NLSPLINE    = F    spline interpolate recip. space projectors
   LCOMPAT=      F    compatible to vasp.4.4
   GGA_COMPAT  = T    GGA compatible to vasp.4.4-vasp.4.6
   LMAXPAW     = -100 max onsite density
   LMAXMIX     =    2 max onsite mixed and CHGCAR
   VOSKOWN=      0    Vosko Wilk Nusair interpolation
   ROPT   =    0.00000   0.00000   0.00000   0.00000
   ROPT   =    0.00000
 Ionic relaxation
   EDIFFG = -.1E-01   stopping-criterion for IOM
   NSW    =      0    number of steps for IOM
   NBLOCK =      1;   KBLOCK =      1    inner block; outer block
   IBRION =     -1    ionic relax: 0-MD 1-quasi-New 2-CG
   NFREE  =      0    steps in history (QN), initial steepest desc. (CG)
   ISIF   =      2    stress and relaxation
   IWAVPR =     10    prediction:  0-non 1-charg 2-wave 3-comb
   ISYM   =      0    0-nonsym 1-usesym 2-fastsym
   LCORR  =      T    Harris-Foulkes like correction to forces

   POTIM  = 0.5000    time-step for ionic-motion
   TEIN   =    0.0    initial temperature
   TEBEG  =    0.0;   TEEND  =   0.0 temperature during run
   SMASS  =  -3.00    Nose mass-parameter (am)
   estimated Nose-frequenzy (Omega)   =  0.10E-29 period in steps =****** mass=  -0.280E-26a.u.
   SCALEE = 1.0000    scale energy and forces
   NPACO  =    256;   APACO  = 16.0  distance and # of slots for P.C.
   PSTRESS=    0.0 pullay stress

  Mass of Ions in am
   POMASS =  12.01 14.00 72.61 12.01 16.00
  Ionic Valenz
   ZVAL   =   4.00  5.00 14.00  4.00  6.00
  Atomic Wigner-Seitz radii
  virtual crystal weights
   VCA    =   1.00  1.00  1.00  1.00  1.00
   NELECT =     280.0000    total number of electrons
   NUPDOWN=      -1.0000    fix difference up-down

 DOS related values:
   EMIN   = -14.00;   EMAX   =  6.00  energy-range for DOS
   EFERMI =   0.00
   ISMEAR =    -5;   SIGMA  =   0.20  broadening in eV -4-tet -1-fermi 0-gaus

 Electronic relaxation 2 (details)
   IALGO  =     38    algorithm
   LDIAG  =      T    sub-space diagonalisation (order eigenvalues)
   LSUBROT=      F    optimize rotation matrix (better conditioning)
   TURBO    =      0    0=normal 1=particle mesh
   IRESTART =      0    0=no restart 2=restart with 2 vectors
   NREBOOT  =      0    no. of reboots
   NMIN     =      0    reboot dimension
   EREF     =   0.00    reference energy to select bands
   IMIX   =      4    mixing-type and parameters
     AMIX     =   0.25;   BMIX     =  0.00
     AMIX_MAG =   1.00;   BMIX_MAG =  0.00
     AMIN     =   0.10
     WC   =   100.;   INIMIX=   1;  MIXPRE=   1;  MAXMIX= -45

 Intra band minimization:
   WEIMIN = 0.0000     energy-eigenvalue tresh-hold
   EBREAK =  0.15E-06  absolut break condition
   DEPER  =   0.30     relativ break condition

   TIME   =   0.40     timestep for ELM

  volume/ion in A,a.u.               =      20.90       141.06
  Fermi-wavevector in a.u.,A,eV,Ry     =   0.998716  1.887300 13.570919  0.997434
  Thomas-Fermi vector in A             =   2.130958

 Write flags
   LWAVE        =      F    write WAVECAR
   LDOWNSAMPLE  =      F    k-point downsampling of WAVECAR
   LCHARG       =      F    write CHGCAR
   LVTOT        =      F    write LOCPOT, total local potential
   LVHAR        =      F    write LOCPOT, Hartree potential only
   LELF         =      F    write electronic localiz. function (ELF)
   LORBIT       =     11    0 simple, 1 ext, 2 COOP (PROOUT), +10 PAW based schemes

 Dipole corrections
   LMONO  =      F    monopole corrections only (constant potential shift)
   LDIPOL =      F    correct potential (dipole corrections)
   IDIPOL =      0    1-x, 2-y, 3-z, 4-all directions
   EPSILON=  1.0000000 bulk dielectric constant

 Exchange correlation treatment:
   GGA     =    --    GGA type
   VOSKOWN=      0    Vosko Wilk Nusair interpolation
   LHFCALC =     F    Hartree Fock is set to
   LHFONE  =     F    Hartree Fock one center treatment
   AEXX    =    0.0000 exact exchange contribution

[...]
  Total    1338.06080  1217.75520   302.51022   -14.87510    43.97858    26.31455
  in kB    1738.32270  1582.02940   393.00186   -19.32478    57.13415    34.18618

 VOLUME and BASIS-vectors are now :
  energy-cutoff  :      440.00
  volume of cell :     1233.26
      direct lattice vectors                 reciprocal lattice vectors
    11.074739388 -0.152592379  0.000000000     0.091037962  0.053880143 -0.000000000
    -5.537369694  9.356152795  0.000000000     0.001484766  0.107760286 -0.000000000
     0.000000000  0.000000000 12.000000000    -0.000000000 -0.000000000  0.083333333

  length of vectors
    11.075790579 10.871985019 12.000000000     0.105787430  0.107770514  0.083333333

 FORCES acting on ions
    electron-ion (+dipol)            ewald-force                    non-local-force                 convergence-correction
   -.863E+01 0.264E+02 0.165E+03   0.889E+01 -.212E+02 -.167E+03   -.219E+00 0.450E+01 -.121E+01   -.164E-01 0.515E-02 0.142E-02
   -.125E+02 0.465E+02 0.181E+03   0.495E+01 -.467E+02 -.182E+03   -.407E+01 0.147E+01 0.283E+00   -.177E-01 -.152E-01 -.536E-02
   -.871E+01 0.505E+02 0.179E+03   0.164E+02 -.505E+02 -.179E+03   0.361E+01 0.143E+01 0.713E+00   -.271E-01 -.108E-01 -.534E-02
   0.102E+03 -.862E+02 -.125E+03   -.106E+03 0.869E+02 0.127E+03   0.424E+01 -.217E+01 -.635E+00   0.223E-01 -.229E-01 -.117E-02
   -.264E+02 0.833E+02 0.287E+03   0.258E+02 -.846E+02 -.291E+03   -.296E+00 0.457E+01 0.308E+01   -.123E-02 -.675E-02 -.262E-03
   -.955E+02 -.261E+02 0.138E+03   0.988E+02 0.268E+02 -.141E+03   -.416E+01 -.216E+01 0.181E+01   -.554E-02 -.526E-02 0.309E-02
   0.650E+02 -.364E+02 -.460E+02   -.639E+02 0.412E+02 0.501E+02   0.102E+01 0.293E+01 0.848E+00   0.112E-01 -.352E-02 -.269E-02
   0.327E+02 -.325E+02 -.704E+02   -.369E+02 0.281E+02 0.708E+02   -.330E+01 -.244E+01 0.725E+00   0.122E-01 -.101E-01 0.145E-02
   -.280E+01 -.848E+01 -.856E+02   0.713E+01 0.345E+01 0.873E+02   0.379E+01 -.170E+01 0.414E+00   0.158E-01 -.458E-02 -.202E-02
   -.417E+02 0.241E+02 -.104E+03   0.386E+02 -.242E+02 0.106E+03   0.119E+01 -.206E+01 -.165E+01   -.257E-02 0.111E-01 0.583E-02
   -.519E+01 0.274E+02 0.679E+02   0.535E+01 -.324E+02 -.694E+02   0.112E+00 0.447E+01 -.552E+00   -.776E-02 0.122E-01 0.998E-02
   0.527E+02 0.210E+02 -.943E+02   -.497E+02 -.216E+02 0.983E+02   -.126E+01 -.267E+01 -.103E+01   -.129E-01 -.280E-02 -.689E-02
   -.468E+01 -.180E+02 -.259E+02   0.551E+01 0.214E+02 0.226E+02   -.369E+00 0.446E+01 -.960E+00   0.181E-01 -.984E-02 -.612E-02
   0.522E+02 0.400E+02 0.277E+03   -.571E+02 -.424E+02 -.278E+03   -.396E+01 -.148E+01 -.134E+01   0.279E-01 -.115E-01 0.341E-02
   -.129E+02 0.279E+02 0.124E+03   0.181E+02 -.331E+02 -.125E+03   0.393E+01 -.125E+01 -.526E+00   0.189E-01 -.178E-01 -.457E-02
   0.985E+02 -.245E+02 0.947E+02   -.102E+03 0.247E+02 -.964E+02   0.421E+01 -.227E+01 0.947E+00   -.280E-02 0.509E-02 0.131E-02
   0.115E+02 0.117E+03 0.305E+03   -.896E+01 -.118E+03 -.310E+03   -.423E+00 0.428E+01 0.269E+01   0.114E-02 0.557E-03 0.737E-02
   -.968E+02 -.899E+02 -.142E+03   0.101E+03 0.912E+02 0.145E+03   -.412E+01 -.204E+01 -.789E+00   -.138E-01 -.104E-01 -.399E-02
   -.570E+02 -.333E+02 -.201E+03   0.537E+02 0.397E+02 0.205E+03   -.438E+00 0.296E+01 0.767E+00   -.119E-01 0.214E-01 0.450E-02
   0.683E+01 -.984E+01 -.155E+03   -.123E+02 0.494E+01 0.159E+03   -.384E+01 -.160E+01 0.600E+00   -.145E-01 0.106E-01 -.101E-02
   -.359E+02 -.259E+02 -.126E+03   0.414E+02 0.211E+02 0.128E+03   0.305E+01 -.255E+01 0.151E+01   -.121E-01 0.742E-02 0.422E-02
   0.116E+03 -.102E+03 0.198E+03   -.116E+03 0.108E+03 -.199E+03   0.387E+01 -.345E+01 0.604E+00   0.251E-01 -.140E-01 0.363E-02
   -.155E+02 0.658E+02 -.273E+03   0.157E+02 -.699E+02 0.278E+03   -.111E+00 0.475E+01 -.210E+01   0.348E-02 0.131E-01 -.863E-02
   -.131E+03 -.377E+02 -.879E+02   0.132E+03 0.396E+02 0.906E+02   -.455E+01 -.171E+01 -.173E+01   -.597E-02 0.335E-02 0.139E-02
   -.214E+02 0.624E+02 0.238E+03   0.227E+02 -.622E+02 -.244E+03   -.315E+00 0.194E+01 0.386E+01   -.395E-01 -.114E-01 -.830E-03
   -.284E+03 -.391E+02 0.320E+03   0.343E+03 0.711E+02 -.347E+03   -.336E+02 -.169E+02 0.140E+02   -.794E-02 -.559E-04 0.280E-02
   0.228E+03 -.227E+03 -.342E+03   -.286E+03 0.259E+03 0.368E+03   0.324E+02 -.177E+02 -.107E+02   0.188E-01 -.230E-01 -.720E-03
   0.444E+01 0.251E+03 0.568E+03   0.465E+00 -.305E+03 -.615E+03   -.106E+01 0.303E+02 0.227E+02   0.117E-01 -.258E-01 -.127E-01
   -.587E+02 0.208E+03 0.595E+03   0.564E+02 -.257E+03 -.648E+03   0.105E+01 0.294E+02 0.269E+02   -.119E-01 -.246E-01 -.110E-01
   0.282E+03 -.141E+03 -.163E+03   -.338E+03 0.182E+03 0.167E+03   0.313E+02 -.195E+02 -.703E-01   0.216E-01 -.230E-01 -.183E-02
   -.210E+03 -.117E+03 0.363E+03   0.267E+03 0.136E+03 -.405E+03   -.318E+02 -.114E+02 0.203E+02   0.137E-01 -.981E-02 0.127E-02
   -.644E+01 -.979E+00 -.356E+02   0.714E+01 0.418E+00 0.380E+02   -.226E+00 0.326E+00 -.108E+01   -.209E-02 0.860E-02 -.509E-02
   0.272E+02 -.360E+02 -.140E+03   -.272E+02 0.376E+02 0.149E+03   0.367E+00 -.822E+00 -.434E+01   0.238E-01 -.788E-02 0.322E-03
   0.559E+01 -.881E+02 -.433E+03   0.339E+02 0.115E+03 0.484E+03   -.237E+02 -.151E+02 -.252E+02   0.736E-02 0.925E-02 -.473E-02
   0.305E+01 0.101E+03 -.109E+03   -.416E+02 -.955E+02 0.129E+03   0.199E+02 -.398E+01 -.110E+02   -.325E-01 0.120E-01 0.125E-01
   -.254E+02 0.158E+03 0.178E+03   0.311E+02 -.221E+03 -.200E+03   -.185E+01 0.348E+02 0.963E+01   -.210E-01 0.172E-01 0.151E-01
   -.204E+00 0.152E+03 0.198E+03   -.399E+01 -.216E+03 -.220E+03   0.120E+01 0.347E+02 0.974E+01   -.700E-03 0.750E-03 0.141E-01
   0.505E+02 -.858E+02 -.474E+03   -.988E+02 0.114E+03 0.515E+03   0.286E+02 -.154E+02 -.189E+02   -.165E-01 0.303E-01 0.906E-02
   0.479E+01 0.115E+03 -.154E+03   0.304E+02 -.111E+03 0.183E+03   -.183E+02 -.331E+01 -.149E+02   -.172E-01 0.253E-02 -.658E-03
   0.762E+02 0.259E+02 0.104E+03   -.861E+02 -.326E+02 -.105E+03   0.392E+01 0.287E+01 -.141E+00   -.590E-02 -.186E-01 -.467E-02
   0.207E+02 0.584E+02 0.215E+03   -.254E+02 -.613E+02 -.224E+03   0.229E+01 0.180E+01 0.420E+01   0.419E-01 -.209E-01 -.472E-02
   -.277E+03 -.150E+03 -.179E+03   0.334E+03 0.188E+03 0.183E+03   -.313E+02 -.183E+02 -.127E+01   0.531E-02 -.423E-02 -.948E-02
   0.215E+03 -.990E+02 0.281E+03   -.275E+03 0.117E+03 -.317E+03   0.329E+02 -.110E+02 0.169E+02   -.149E-01 0.118E-01 -.261E-03
   0.200E+02 0.241E+03 0.613E+03   -.131E+02 -.293E+03 -.663E+03   -.374E+01 0.306E+02 0.237E+02   -.210E-01 -.115E-02 0.943E-02
   0.809E+01 0.345E+03 0.516E+03   -.122E+02 -.411E+03 -.541E+03   0.794E-01 0.350E+02 0.111E+02   0.129E-01 0.254E-02 0.142E-01
   0.285E+03 -.400E+02 0.193E+03   -.346E+03 0.748E+02 -.207E+03   0.339E+02 -.180E+02 0.728E+01   -.184E-01 0.210E-01 0.135E-02
   -.208E+03 -.232E+03 -.420E+03   0.262E+03 0.264E+03 0.452E+03   -.310E+02 -.174E+02 -.136E+02   -.173E-01 -.108E-02 -.319E-02
   0.114E+01 -.515E+02 -.195E+02   -.986E+00 0.544E+02 0.145E+02   -.192E+00 -.140E+01 0.198E+01   0.124E-02 -.928E-02 0.282E-02
   -.269E+02 -.392E+02 -.273E+03   0.259E+02 0.434E+02 0.285E+03   0.150E+00 -.228E+01 -.587E+01   -.207E-01 0.188E-01 0.566E-02
   -.330E+03 -.941E+02 -.134E+03   0.390E+03 0.129E+03 0.137E+03   -.323E+02 -.189E+02 -.209E+01   -.455E-02 0.202E-01 0.175E-02
   0.260E+03 -.218E+03 0.436E+03   -.321E+03 0.247E+03 -.457E+03   0.316E+02 -.178E+02 0.663E+01   0.355E-01 -.197E-01 0.233E-02
   0.305E+01 0.215E+03 -.556E+03   0.553E+01 -.268E+03 0.602E+03   -.369E+01 0.298E+02 -.233E+02   0.244E-01 -.228E-02 -.531E-02
   -.534E+02 0.166E+03 -.623E+03   0.511E+02 -.214E+03 0.678E+03   0.603E+00 0.289E+02 -.272E+02   -.127E-01 0.114E-01 -.100E-04
   0.278E+03 -.187E+03 0.338E+03   -.326E+03 0.230E+03 -.365E+03   0.257E+02 -.227E+02 0.119E+02   0.230E-01 -.838E-02 0.121E-02
   -.243E+03 -.108E+03 -.268E+03   0.306E+03 0.124E+03 0.298E+03   -.329E+02 -.112E+02 -.145E+02   0.260E-01 -.782E-02 0.719E-02
   -.719E+02 0.302E+02 0.610E+02   0.790E+02 -.359E+02 -.674E+02   -.239E+01 0.224E+01 0.197E+01   0.294E-02 0.235E-03 0.392E-02
   0.663E+02 -.172E+03 -.143E+04   -.689E+02 0.200E+03 0.147E+04   0.175E+01 -.189E+02 -.316E+02   -.809E-01 0.673E-01 -.837E-01
   -.871E+02 -.199E+03 0.184E+03   0.110E+03 0.251E+03 -.245E+03   -.773E+01 -.175E+02 0.203E+02   -.388E-02 -.103E-02 0.287E-03
   0.709E+02 0.160E+03 -.871E+02   -.108E+03 -.243E+03 0.184E+03   0.214E+02 0.486E+02 -.564E+02   -.815E-02 -.463E-02 0.149E-02
   -.109E+02 -.380E+02 0.465E+02   0.142E-13 0.455E-12 -.853E-13   0.110E+02 0.381E+02 -.465E+02   -.840E-01 -.462E-01 -.426E-01

 POSITION                                       TOTAL-FORCE (eV/Angst)
     -0.01196      1.98159      5.23661         0.016966      9.720886     -3.286641
      0.97649      3.68608      5.31694       -11.611086      1.317283     -0.117858
     -1.01991      3.64965      5.24649        11.293293      1.416817      1.190318
      4.60054      0.52903      6.18737         0.660892     -1.545653      2.002829
      2.79044      3.68508      5.06935        -0.932580      3.243631     -0.979334
      0.94872      0.47634      5.50322        -0.840725     -1.501054     -0.445164
     -2.87473      6.64604      5.92586         2.189504      7.709715      4.873061
     -1.77963      8.28418      6.13346        -7.477415     -6.935917      1.191669
     -3.74628      8.36056      6.09655         8.136150     -6.738792      2.108449
      1.92468      5.06136      6.14189        -1.947909     -2.213620      0.453126
      0.03153      8.21411      5.98668         0.262243     -0.465680     -1.950974
     -2.03934      5.05875      5.88710         1.742261     -3.247314      2.935899
      5.58925      1.99172      5.79150         0.478127      7.821053     -4.263036
      6.48311      3.52687      4.91764        -8.820098     -3.832335     -2.118509
      4.57626      3.59621      5.34458         9.198810     -6.473260     -1.599785
     10.11531      0.34594      5.64745         0.526850     -2.014416     -0.687059
      8.27786      3.47288      4.84560         2.151365      2.559146     -2.173191
      6.53402      0.51855      6.26342         0.003948     -0.798755      1.678722
      2.85326      6.56038      6.49403        -3.784565      9.376238      4.723478
      3.77884      8.27450      6.39361        -9.376554     -6.503484      4.925861
      1.80742      8.25721      6.37497         8.499536     -7.354148      3.486393
      7.27503      5.12278      5.16516         3.874931      2.479453     -0.480268
      5.57614      8.29099      6.53502         0.026096      0.666326      2.394439
      3.80947      5.09463      5.99737        -3.087067      0.248380      1.020944
     -0.01148      3.11311      5.21938         0.893192      2.163973     -2.537128
      0.93310      1.48092      5.17047        25.681935     15.113464    -12.279345
      3.71405     -0.03441      6.38494       -25.308336     14.235746     15.535195
      3.71583      3.21966      4.82768         3.849367    -24.146743    -23.898232
      1.82007      3.32259      4.79608        -1.209026    -19.896335    -25.852051
      4.62138      1.57640      6.03686       -25.487863     20.583435      3.795191
     -3.71422      9.22171      5.47892        25.322825      7.478654    -21.257066
      0.01346      0.01711      5.91315         0.466633     -0.227264      1.340083
     -2.77742      7.74826      6.12216         0.432677      0.764631      4.695639
     -2.08899      6.01678      6.33250        15.857803     12.034050     25.557232
      0.97604      4.54447      6.01765       -18.728332      1.387940      9.331110
      0.96896      7.69618      5.99573         3.900180    -29.071452    -12.434895
     -0.90360      7.70849      5.87153        -2.994740    -28.993918    -12.453547
      1.93814      5.98694      6.65705       -19.704520     12.594677     22.235642
     -1.10843      4.50344      5.94044        16.884704      0.532097     14.297953
      8.19993      4.48942      5.35090        -6.005748     -3.916282     -0.914312
      5.56270      2.98713      5.27086        -2.335588     -1.113561     -5.194369
      6.54175      1.56187      6.06190        26.172848     19.805838      2.574022
      3.69995      9.10105      5.73323       -26.418607      6.685542    -19.728562
     -1.80604      3.25520      4.66467         3.130372    -20.954950    -25.919890
      7.36910      2.96235      4.67339        -3.989366    -31.182335    -14.147727
     10.10517      1.35500      5.34061       -26.665957     16.765683     -6.223169
      7.37849     -0.05300      6.59282        23.220237     14.500992     18.216817
      5.56957     -0.04070      6.09875        -0.032238      1.447117     -3.026793
      2.79267      7.68493      6.52943        -0.932190      1.992760      6.424237
      3.79429      6.12360      6.26862        27.814757     15.611458      0.490221
      6.40983      4.61350      4.86800       -29.252590     11.424617    -14.041655
     -4.54788      7.97833      6.70317         4.913342    -23.472346     23.308633
      4.64542      7.91263      6.91164        -1.670928    -19.043196     27.523242
     -3.70328      6.33594      5.33370       -22.176934     19.645174    -14.724068
      4.67235      4.49461      5.92489        29.536009      4.695022     15.970694
      2.82137      4.61772      5.72498         4.627704     -3.454009     -4.425459
     -0.10715      5.50334      6.81258        -0.984030      9.053275     12.864164
     -0.10715      5.50334     11.59658        15.447532     34.915577    -40.560845
     -0.36396      4.92266      0.27285       -15.438099    -34.893832     40.575671
    total drift:                                0.005347      0.002049     -0.041871

  FREE ENERGIE OF THE ION-ELECTRON SYSTEM (eV)
  free  energy   TOTEN  =      -222.96144848 eV

  energy  without entropy=     -222.96144848  energy(sigma->0) =     -222.96144848

 total charge

[...]

 magnetization (x)

# of ion       s       p       d       tot
    1       -0.000   0.000   0.000   0.000
    2        0.000   0.000   0.000   0.000
    3        0.000   0.000   0.000   0.000
    4        0.000   0.000   0.000   0.000
    5        0.000  -0.000   0.000  -0.000
    6        0.000   0.000   0.000   0.000
    7        0.000   0.000   0.000   0.000
    8        0.000   0.000   0.000   0.000
    9        0.000   0.000   0.000   0.000
   10        0.000   0.000   0.000   0.000
   11       -0.000   0.000   0.000   0.000
   12        0.000   0.000   0.000   0.000
   13        0.000   0.000   0.000   0.000
   14        0.000   0.000   0.000   0.000
   15        0.000   0.000   0.000   0.000
   16       -0.000   0.000   0.000   0.000
   17        0.000   0.000   0.000   0.000
   18       -0.000   0.000   0.000   0.000
   19       -0.000  -0.000   0.000  -0.000
   20        0.000   0.000   0.000   0.000
   21       -0.000  -0.000   0.000  -0.000
   22        0.000   0.000   0.000   0.000
   23       -0.000   0.000   0.000   0.000
   24       -0.000  -0.000   0.000  -0.000
   25        0.000  -0.000   0.000  -0.000
   26       -0.000  -0.000   0.000  -0.000
   27       -0.000  -0.000   0.000  -0.000
   28       -0.000  -0.000   0.000  -0.000
   29        0.000  -0.000   0.000  -0.000
   30       -0.000  -0.000   0.000  -0.000
   31       -0.000  -0.000   0.000  -0.000
   32        0.000   0.000   0.000   0.000
   33       -0.000   0.000   0.000   0.000
   34       -0.000  -0.000   0.000  -0.000
   35        0.000  -0.000   0.000  -0.000
   36       -0.000   0.000   0.000   0.000
   37        0.000   0.000   0.000   0.000
   38       -0.000  -0.000   0.000  -0.000
   39       -0.000  -0.000   0.000  -0.000
   40        0.000   0.000   0.000   0.000
   41       -0.000   0.000   0.000   0.000
   42       -0.000   0.000   0.000   0.000
   43       -0.000   0.000   0.000   0.000
   44       -0.000   0.000   0.000   0.000
   45       -0.000   0.000   0.000   0.000
   46       -0.000   0.000   0.000   0.000
   47       -0.000  -0.000   0.000  -0.000
   48        0.000   0.000   0.000   0.000
   49        0.000   0.000   0.000   0.000
   50        0.000  -0.000   0.000  -0.000
   51       -0.000  -0.000   0.000  -0.000
   52       -0.000  -0.000   0.000  -0.000
   53        0.000  -0.000   0.000  -0.000
   54       -0.000  -0.000   0.000  -0.000
   55       -0.000  -0.000   0.000  -0.000
   56       -0.000  -0.000   0.000  -0.000
   57       -0.000  -0.000   0.000  -0.000
   58       -0.000   0.000   0.000  -0.000
   59       -0.000  -0.000   0.000  -0.000
tot         -0.000   0.000   0.000  -0.000

 BZINTS: Fermi energy:  1.265066;280.000000 electrons
         Band energy:***********;  BLOECHL correction:  0.000000