 vasp.5.4.4.18Apr17-6-g9f103f2a35 (build Sep 02 2021 13:24:58) complex

 executed on             LinuxIFC date 2023.01.15  13:02:12

 INCAR:
 POTCAR:    PAW_PBE C 08Apr2002
 POTCAR:    PAW_PBE N 08Apr2002
 POTCAR:    PAW_PBE C 08Apr2002
 POTCAR:    PAW_PBE Cr_pv 02Aug2007
 POTCAR:    PAW_PBE C 08Apr2002
   VRHFIN =C: s2p2

   TITEL  = PAW_PBE C 08Apr2002
   POMASS =   12.011; ZVAL   =    4.000    mass and valenz
   ENMAX  =  400.000; ENMIN  =  300.000 eV

[...]

   TITEL  = PAW_PBE C 08Apr2002
   POMASS =   12.011; ZVAL   =    4.000    mass and valenz
   ENMAX  =  400.000; ENMIN  =  300.000 eV

   TITEL  = PAW_PBE Cr_pv 02Aug2007
   POMASS =   51.996; ZVAL   =   12.000    mass and valenz
   ENMAX  =  265.681; ENMIN  =  199.261 eV

 Optimization of the real space projectors (new method)

 maximal supplied QI-value         = 25.13
 optimisation between [QCUT,QGAM] = [ 11.81, 23.88] = [ 39.08,159.64] Ry
 Optimized for a Real-space Cutoff    1.18 Angstroem

   l    n(q)    QCUT    max X(q) W(low)/X(q) W(high)/X(q)  e(spline)
   0      8    11.813   115.676    0.10E-03    0.16E-03    0.35E-06
   0      8    11.813    87.132    0.10E-03    0.16E-03    0.35E-06
   1      8    11.813     4.429    0.16E-03    0.13E-04    0.22E-06
   1      8    11.813     2.733    0.13E-03    0.10E-04    0.18E-06
 Optimization of the real space projectors (new method)

[...]

   l    n(q)    QCUT    max X(q) W(low)/X(q) W(high)/X(q)  e(spline)
   0      8    11.813   115.676    0.10E-03    0.16E-03    0.35E-06
   0      8    11.813    87.132    0.10E-03    0.16E-03    0.35E-06
   1      8    11.813     4.429    0.16E-03    0.13E-04    0.22E-06
   1      8    11.813     2.733    0.13E-03    0.10E-04    0.18E-06
 Optimization of the real space projectors (new method)

 maximal supplied QI-value         = 16.25
 optimisation between [QCUT,QGAM] = [ 11.86, 23.89] = [ 39.41,159.82] Ry
 Optimized for a Real-space Cutoff    1.33 Angstroem

   l    n(q)    QCUT    max X(q) W(low)/X(q) W(high)/X(q)  e(spline)
   1      9    11.864     3.262    0.48E-04    0.16E-03    0.14E-06
   1      9    11.864     5.741    0.74E-04    0.40E-03    0.35E-06
   2      9    11.864    60.438    0.17E-03    0.21E-03    0.26E-06
   2      9    11.864    55.380    0.17E-03    0.21E-03    0.27E-06
   0      9    11.864    80.273    0.40E-04    0.47E-04    0.12E-06
   0      9    11.864    36.654    0.35E-04    0.41E-04    0.11E-06
  PAW_PBE C 08Apr2002                   :
  PAW_PBE N 08Apr2002                   :
  PAW_PBE C 08Apr2002                   :
  PAW_PBE Cr_pv 02Aug2007               :

 POSCAR: POSCAR-clean
  positions in cartesian coordinates
 exchange correlation table for  LEXCH =        8
   RHO(1)=    0.500       N(1)  =     2000
   RHO(2)=  100.500       N(2)  =     4000

 ion  position               nearest neighbor table
   1  0.000  1.000  0.498-   2 1.42  60 1.42  70 1.43
   2  0.056  0.111  0.498-   1 1.42  13 1.42  15 1.43
   3  0.168  0.002  0.498-   4 1.42  62 1.43  60 1.43
   4  0.224  0.113  0.498-   3 1.42  15 1.42  17 1.44
   5  0.334  0.002  0.498-   6 1.42  62 1.43  64 1.43
   6  0.390  0.113  0.498-   5 1.42  19 1.42  17 1.44
   7  0.500  1.000  0.498-   8 1.42  64 1.42  66 1.43
   8  0.556  0.111  0.498-   7 1.42  21 1.42  19 1.43
   9  0.666  0.998  0.498-  10 1.42  66 1.42  68 1.44
  10  0.722  0.109  0.498-   9 1.42  23 1.43  21 1.43
  11  0.832  0.998  0.498-  12 1.42  70 1.42  68 1.44
  12  0.888  0.109  0.498-  11 1.42  23 1.43  13 1.43
  13  0.999  0.165  0.498-  14 1.42   2 1.42  12 1.43
  14  0.054  0.277  0.499-  13 1.42  25 1.42  27 1.43
  15  0.167  0.168  0.498-  16 1.42   4 1.42   2 1.43
  16  0.223  0.280  0.500-  15 1.42  27 1.43  29 1.44
  17  0.335  0.170  0.499-  18 1.42   4 1.44   6 1.44
  18  0.391  0.281  0.503-  17 1.42  31 1.44  29 1.44
  19  0.501  0.168  0.498-  20 1.42   6 1.42   8 1.43
  20  0.557  0.280  0.500-  19 1.42  33 1.43  31 1.44
  21  0.667  0.165  0.498-  22 1.42   8 1.42  10 1.43
  22  0.723  0.277  0.498-  21 1.42  35 1.42  33 1.43
  23  0.833  0.165  0.498-  24 1.42  10 1.43  12 1.43
  24  0.888  0.276  0.498-  23 1.42  25 1.42  35 1.43
  25  0.999  0.332  0.498-  14 1.42  26 1.42  24 1.42
  26  0.054  0.444  0.499-  39 1.42  37 1.42  25 1.42
  27  0.165  0.333  0.500-  28 1.42  16 1.43  14 1.43
  28  0.219  0.444  0.502-  41 1.41  27 1.42  39 1.42
  29  0.335  0.338  0.503-  30 1.41  18 1.44  16 1.44
  30  0.387  0.448  0.510-  41 1.41  29 1.41  71 2.00
  31  0.503  0.338  0.504-  32 1.41  18 1.44  20 1.44
  32  0.562  0.448  0.510-  43 1.41  31 1.41  71 2.00
  33  0.668  0.333  0.500-  34 1.42  20 1.43  22 1.43
  34  0.725  0.444  0.501-  43 1.41  33 1.42  45 1.42
  35  0.833  0.332  0.498-  22 1.42  36 1.42  24 1.43
  36  0.890  0.444  0.498-  45 1.42  37 1.42  35 1.42
  37  0.000  0.500  0.498-  36 1.42  26 1.42  38 1.42
  38  0.056  0.611  0.498-  47 1.42  49 1.42  37 1.42
  39  0.165  0.500  0.500-  26 1.42  28 1.42  40 1.42
  40  0.220  0.611  0.500-  49 1.42  51 1.42  39 1.42
  41  0.329  0.499  0.505-  30 1.41  28 1.41  42 1.44
  42  0.385  0.612  0.505-  53 1.41  51 1.41  41 1.44
  43  0.671  0.499  0.505-  32 1.41  34 1.41  44 1.44
  44  0.727  0.612  0.505-  55 1.41  57 1.41  43 1.44
  45  0.836  0.500  0.499-  36 1.42  34 1.42  46 1.42
  46  0.891  0.611  0.499-  47 1.42  57 1.42  45 1.42
  47  0.001  0.667  0.498-  46 1.42  38 1.42  48 1.42
  48  0.057  0.779  0.498-  59 1.42  47 1.42  61 1.43
  49  0.166  0.667  0.499-  40 1.42  38 1.42  50 1.42
  50  0.222  0.779  0.498-  63 1.42  49 1.42  61 1.42
  51  0.331  0.667  0.502-  42 1.41  52 1.42  40 1.42
  52  0.388  0.778  0.500-  51 1.42  65 1.43  63 1.43
  53  0.494  0.663  0.510-  42 1.41  54 1.41  71 2.00
  54  0.553  0.773  0.503-  53 1.41  67 1.44  65 1.44
  55  0.669  0.663  0.510-  44 1.41  56 1.41  71 2.00
  56  0.721  0.773  0.504-  55 1.41  67 1.44  69 1.44
  57  0.837  0.667  0.501-  44 1.41  58 1.42  46 1.42
  58  0.891  0.778  0.500-  57 1.42  69 1.42  59 1.43
  59  0.002  0.835  0.498-  60 1.42  48 1.42  58 1.43
  60  0.057  0.946  0.498-  59 1.42   1 1.42   3 1.43
  61  0.168  0.835  0.498-  62 1.42  50 1.42  48 1.43
  62  0.223  0.946  0.498-  61 1.42   3 1.43   5 1.43
  63  0.333  0.835  0.499-  64 1.42  50 1.42  52 1.43
  64  0.389  0.946  0.498-  63 1.42   7 1.42   5 1.43
  65  0.499  0.832  0.500-  66 1.42  52 1.43  54 1.44
  66  0.555  0.943  0.498-  65 1.42   9 1.42   7 1.43
  67  0.665  0.830  0.503-  68 1.42  56 1.44  54 1.44
  68  0.721  0.941  0.499-  67 1.42   9 1.44  11 1.44
  69  0.833  0.832  0.500-  70 1.42  58 1.42  56 1.44
  70  0.889  0.943  0.498-  69 1.42  11 1.42   1 1.43
  71  0.528  0.556  0.554-  55 2.00  32 2.00  53 2.00  30 2.00

IMPORTANT INFORMATION: All symmetrisations will be switched off!
NOSYMM: (Re-)initialisation of all symmetry stuff for point group C_1.

 KPOINTS: K-Points

Automatic generation of k-mesh.
Space group operators:
 irot       det(A)        alpha          n_x          n_y          n_z        tau_x        tau_y        tau_z
    1     1.000000     0.000000     1.000000     0.000000     0.000000     0.000000     0.000000     0.000000

 Subroutine IBZKPT returns following result:

 Found      4 irreducible k-points:

 Following reciprocal coordinates:
            Coordinates               Weight
  0.000000  0.000000  0.000000      1.000000
  0.500000  0.000000  0.000000      1.000000
 -0.000000  0.500000  0.000000      1.000000
  0.500000  0.500000  0.000000      1.000000

 Following cartesian coordinates:
            Coordinates               Weight
  0.000000  0.000000  0.000000      1.000000
  0.033606  0.019589  0.000000      1.000000
 -0.000000  0.039178  0.000000      1.000000
  0.033606  0.058767  0.000000      1.000000

 SYSTEM =  unknown system
 POSCAR =  POSCAR-clean

 Startparameter for this run:
   NWRITE =      2    write-flag & timer
   PREC   = accura    normal or accurate (medium, high low for compatibility)
   ISTART =      0    job   : 0-new  1-cont  2-samecut
   ICHARG =      2    charge: 1-file 2-atom 10-const
   ISPIN  =      2    spin polarized calculation?
   LNONCOLLINEAR =      F non collinear calculations
   LSORBIT =      F    spin-orbit coupling
   INIWAV =      1    electr: 0-lowe 1-rand  2-diag
   LASPH  =      F    aspherical Exc in radial PAW
   METAGGA=      F    non-selfconsistent MetaGGA calc.

 Electronic Relaxation 1
   ENCUT  =  550.0 eV  40.42 Ry    6.36 a.u.  28.45 28.25 28.68*2*pi/ulx,y,z
   ENINI  =  550.0     initial cutoff
   ENAUG  =  644.9 eV  augmentation charge cutoff
   NELM   =     50;   NELMIN=  2; NELMDL= -5     # of ELM steps
   EDIFF  = 0.1E-04   stopping-criterion for ELM
   LREAL  =      T    real-space projection
   NLSPLINE    = F    spline interpolate recip. space projectors
   LCOMPAT=      F    compatible to vasp.4.4
   GGA_COMPAT  = T    GGA compatible to vasp.4.4-vasp.4.6
   LMAXPAW     = -100 max onsite density
   LMAXMIX     =    2 max onsite mixed and CHGCAR
   VOSKOWN=      0    Vosko Wilk Nusair interpolation
   ROPT   =   -0.00025  -0.00025  -0.00025  -0.00025
 Ionic relaxation
   EDIFFG = -.5E-01   stopping-criterion for IOM
   NSW    =    400    number of steps for IOM
   NBLOCK =      1;   KBLOCK =    400    inner block; outer block
   IBRION =      2    ionic relax: 0-MD 1-quasi-New 2-CG
   NFREE  =      1    steps in history (QN), initial steepest desc. (CG)
   ISIF   =      3    stress and relaxation
   IWAVPR =     11    prediction:  0-non 1-charg 2-wave 3-comb
   ISYM   =      0    0-nonsym 1-usesym 2-fastsym
   LCORR  =      T    Harris-Foulkes like correction to forces

   POTIM  = 0.3000    time-step for ionic-motion
   TEIN   =    0.0    initial temperature
   TEBEG  =    0.0;   TEEND  =   0.0 temperature during run
   SMASS  =  -3.00    Nose mass-parameter (am)
   estimated Nose-frequenzy (Omega)   =  0.10E-29 period in steps =****** mass=  -0.506E-26a.u.
   SCALEE = 1.0000    scale energy and forces
   NPACO  =    256;   APACO  = 16.0  distance and # of slots for P.C.
   PSTRESS=    0.0 pullay stress

  Mass of Ions in am
   POMASS =  12.01 14.00 12.01 52.00
  Ionic Valenz
   ZVAL   =   4.00  5.00  4.00 12.00
  Atomic Wigner-Seitz radii
  virtual crystal weights
   VCA    =   1.00  1.00  1.00  1.00
   NELECT =     293.0000    total number of electrons
   NUPDOWN=      -1.0000    fix difference up-down

 DOS related values:
   EMIN   =  10.00;   EMAX   =-10.00  energy-range for DOS
   EFERMI =   0.00
   ISMEAR =     0;   SIGMA  =   0.10  broadening in eV -4-tet -1-fermi 0-gaus

 Electronic relaxation 2 (details)
   IALGO  =     68    algorithm
   LDIAG  =      T    sub-space diagonalisation (order eigenvalues)
   LSUBROT=      F    optimize rotation matrix (better conditioning)
   TURBO    =      0    0=normal 1=particle mesh
   IRESTART =      0    0=no restart 2=restart with 2 vectors
   NREBOOT  =      0    no. of reboots
   NMIN     =      0    reboot dimension
   EREF     =   0.00    reference energy to select bands
   IMIX   =      4    mixing-type and parameters
     AMIX     =   0.40;   BMIX     =  1.00
     AMIX_MAG =   1.60;   BMIX_MAG =  1.00
     AMIN     =   0.10
     WC   =   100.;   INIMIX=   1;  MIXPRE=   1;  MAXMIX= -45

 Intra band minimization:
[...]
    -7.429596285 12.762630739  0.000000000     0.000051664  0.078383827  0.000000000
     0.000000000  0.000000000 15.000000000     0.000000000  0.000000000  0.066666667

  length of vectors
    14.859195797 14.767655343 15.000000000     0.077900958  0.078383844  0.066666667

 FORCES acting on ions
    electron-ion (+dipol)            ewald-force                    non-local-force                 convergence-correction
   0.126E+01 -.461E+00 0.770E+01   -.124E+01 0.432E+00 -.772E+01   -.299E-01 0.391E-01 0.250E-01   0.807E-04 0.518E-04 -.256E-03
   -.225E+01 -.728E+00 0.763E+01   0.236E+01 0.791E+00 -.765E+01   -.914E-01 -.453E-01 0.245E-01   0.478E-03 -.123E-02 -.265E-03
   0.114E+01 -.116E+00 0.739E+01   -.126E+01 0.239E+00 -.742E+01   0.109E+00 -.121E+00 0.276E-01   0.189E-03 -.476E-03 0.132E-03
   -.853E+00 0.995E-01 0.738E+01   0.845E+00 0.248E-01 -.738E+01   -.723E-02 -.115E+00 0.191E-02   0.826E-03 -.662E-03 -.481E-04
   0.394E+01 -.164E+01 0.660E+01   -.437E+01 0.200E+01 -.662E+01   0.406E+00 -.354E+00 0.198E-01   -.433E-03 -.212E-03 0.190E-03
   0.457E+01 -.568E+00 0.694E+01   -.472E+01 0.837E+00 -.695E+01   0.147E+00 -.266E+00 0.263E-02   0.535E-03 0.788E-03 0.328E-03
   0.240E+01 -.100E+02 0.787E+01   -.332E+01 0.109E+02 -.790E+01   0.917E+00 -.916E+00 0.293E-01   0.827E-03 -.648E-03 0.149E-03
   0.393E+01 -.336E+01 0.774E+01   -.401E+01 0.406E+01 -.777E+01   0.907E-01 -.703E+00 0.281E-01   0.261E-04 0.142E-02 -.370E-05
   -.741E+01 -.110E+02 0.744E+01   0.852E+01 0.118E+02 -.745E+01   -.109E+01 -.797E+00 0.835E-02   0.106E-02 -.192E-03 0.959E-04
   -.302E+01 -.322E+01 0.716E+01   0.307E+01 0.375E+01 -.718E+01   -.498E-01 -.518E+00 0.234E-01   0.973E-03 0.318E-03 -.461E-04
   -.161E+01 -.281E+01 0.762E+01   0.198E+01 0.294E+01 -.765E+01   -.356E+00 -.124E+00 0.256E-01   -.293E-03 0.173E-03 0.743E-03
   -.215E+01 -.163E+01 0.681E+01   0.225E+01 0.167E+01 -.683E+01   -.939E-01 -.261E-01 0.205E-01   -.322E-03 -.268E-03 0.719E-03
   0.373E+00 0.324E+01 0.685E+01   -.334E+00 -.322E+01 -.686E+01   -.316E-01 -.175E-01 0.672E-02   -.102E-02 0.217E-03 0.201E-03
   0.517E+00 0.348E+01 0.631E+01   -.480E+00 -.350E+01 -.634E+01   -.181E-01 0.188E-01 0.223E-01   -.832E-03 -.679E-03 -.104E-03
   0.222E+01 0.393E+01 0.843E+01   -.216E+01 -.378E+01 -.845E+01   -.582E-01 -.148E+00 0.176E-01   -.350E-03 0.453E-04 -.491E-03
   -.173E+01 0.799E+01 0.940E+01   0.223E+01 -.776E+01 -.948E+01   -.501E+00 -.235E+00 0.856E-01   0.231E-03 -.148E-02 -.622E-03
   0.137E+01 0.577E+01 0.740E+01   -.145E+01 -.529E+01 -.743E+01   0.703E-01 -.470E+00 0.219E-01   0.848E-03 0.519E-03 0.464E-03
   0.228E+01 0.719E+01 0.665E+01   -.228E+01 -.651E+01 -.626E+01   0.201E-02 -.704E+00 -.390E+00   0.406E-03 0.264E-03 0.638E-03
   -.192E+01 0.257E+01 0.817E+01   0.170E+01 -.226E+01 -.818E+01   0.218E+00 -.319E+00 0.108E-01   0.407E-03 -.282E-03 0.288E-03
   0.198E+01 0.642E+01 0.986E+01   -.250E+01 -.606E+01 -.997E+01   0.513E+00 -.346E+00 0.109E+00   0.452E-03 0.160E-02 0.282E-03
   -.193E+01 -.834E+00 0.784E+01   0.198E+01 0.110E+01 -.785E+01   -.379E-01 -.249E+00 0.121E-01   -.912E-03 0.358E-03 -.235E-03
   -.187E+01 0.212E+01 0.796E+01   0.183E+01 -.196E+01 -.798E+01   0.466E-01 -.135E+00 0.277E-01   0.133E-03 -.264E-04 -.395E-03
   -.440E+00 0.138E+00 0.599E+01   0.599E+00 -.158E-01 -.598E+01   -.165E+00 -.109E+00 -.192E-01   -.129E-02 -.603E-03 0.416E-03
   -.101E+01 0.170E+01 0.632E+01   0.104E+01 -.164E+01 -.635E+01   -.244E-01 -.583E-01 0.250E-01   -.109E-02 0.370E-03 0.679E-03
   0.202E+01 0.270E+01 0.555E+01   -.195E+01 -.274E+01 -.553E+01   -.619E-01 0.317E-01 -.159E-01   -.142E-02 -.838E-03 0.523E-03
   0.315E+01 0.532E+01 0.570E+01   -.317E+01 -.541E+01 -.574E+01   0.316E-01 0.869E-01 0.275E-01   -.193E-02 0.810E-04 0.381E-03
   0.423E+01 0.109E+02 0.625E+01   -.402E+01 -.111E+02 -.622E+01   -.192E+00 0.121E+00 -.416E-01   -.151E-02 -.971E-03 -.539E-03
   0.116E+02 0.892E+01 0.565E+01   -.113E+02 -.894E+01 -.577E+01   -.255E+00 0.129E-01 0.980E-01   -.115E-02 -.182E-03 0.453E-03
   -.783E+00 0.186E+02 0.122E+02   0.105E+01 -.177E+02 -.124E+02   -.286E+00 -.971E+00 0.233E+00   0.983E-03 -.142E-03 0.852E-04
   -.730E+01 0.359E+02 0.266E+02   0.136E+02 -.324E+02 -.257E+02   -.631E+01 -.352E+01 -.901E+00   -.136E-02 -.988E-03 -.362E-03
   0.838E+00 0.176E+02 0.121E+02   -.112E+01 -.167E+02 -.123E+02   0.294E+00 -.947E+00 0.246E+00   0.845E-03 0.150E-02 -.766E-04
   0.701E+01 0.371E+02 0.225E+02   -.132E+02 -.337E+02 -.215E+02   0.622E+01 -.344E+01 -.101E+01   0.148E-02 -.231E-02 -.236E-02
   -.418E+01 0.858E+01 0.733E+01   0.396E+01 -.853E+01 -.729E+01   0.231E+00 -.241E-01 -.325E-01   -.910E-03 0.233E-05 -.789E-03
   -.117E+02 0.631E+01 0.604E+01   0.115E+02 -.617E+01 -.615E+01   0.213E+00 -.135E+00 0.116E+00   -.344E-04 0.467E-03 -.165E-02
   -.222E+01 0.195E+01 0.677E+01   0.218E+01 -.192E+01 -.675E+01   0.414E-01 -.333E-01 -.204E-01   -.624E-04 -.563E-03 0.250E-03
   -.370E+01 0.416E+01 0.759E+01   0.361E+01 -.415E+01 -.764E+01   0.771E-01 -.104E-01 0.456E-01   -.293E-03 0.238E-03 0.635E-04
   0.770E+00 0.120E+01 0.674E+01   -.796E+00 -.123E+01 -.676E+01   0.305E-01 0.428E-01 0.234E-01   -.889E-03 -.184E-02 0.545E-03
   0.108E+01 0.506E-01 0.653E+01   -.124E+01 -.147E+00 -.655E+01   0.148E+00 0.931E-01 0.157E-01   -.877E-03 0.138E-02 0.361E-03
   0.645E+01 0.222E+01 0.356E+01   -.645E+01 -.243E+01 -.352E+01   0.675E-02 0.230E+00 -.522E-01   -.921E-03 -.125E-04 0.366E-03
   0.612E+01 0.313E+01 0.408E+01   -.658E+01 -.349E+01 -.406E+01   0.460E+00 0.357E+00 -.400E-01   -.144E-02 -.141E-04 0.141E-02
   0.241E+02 0.128E+02 0.141E+02   -.231E+02 -.136E+02 -.146E+02   -.967E+00 0.851E+00 0.534E+00   0.105E-02 -.997E-03 0.982E-04
   0.238E+02 0.116E+01 0.139E+02   -.227E+02 -.157E+01 -.143E+02   -.105E+01 0.385E+00 0.442E+00   0.123E-02 0.384E-03 -.377E-02
   -.269E+02 0.892E+01 0.127E+02   0.261E+02 -.941E+01 -.134E+02   0.799E+00 0.510E+00 0.636E+00   0.103E-02 0.165E-03 -.851E-03
   -.270E+02 -.847E+01 0.140E+02   0.263E+02 0.890E+01 -.146E+02   0.730E+00 -.450E+00 0.563E+00   -.328E-03 0.369E-03 0.216E-02
   -.516E+01 0.270E+00 0.605E+01   0.509E+01 -.255E+00 -.601E+01   0.630E-01 -.149E-01 -.339E-01   0.604E-04 -.593E-03 -.124E-02
   -.491E+01 -.582E+00 0.603E+01   0.482E+01 0.550E+00 -.600E+01   0.738E-01 0.103E-01 -.252E-01   -.509E-03 0.196E-03 -.127E-02
   -.266E+01 -.374E+01 0.738E+01   0.254E+01 0.373E+01 -.742E+01   0.114E+00 0.212E-02 0.423E-01   0.728E-03 -.408E-03 -.349E-03
   -.701E+00 -.371E+01 0.664E+01   0.525E+00 0.370E+01 -.662E+01   0.165E+00 0.667E-02 -.188E-01   -.154E-03 0.541E-03 0.387E-04
   0.724E+01 -.196E+01 0.546E+01   -.744E+01 0.181E+01 -.549E+01   0.190E+00 0.143E+00 0.158E-01   -.735E-03 -.584E-03 0.814E-03
   0.556E+01 -.360E+01 0.523E+01   -.609E+01 0.331E+01 -.521E+01   0.525E+00 0.270E+00 -.216E-01   -.107E-02 0.101E-02 0.423E-03
   0.187E+02 0.232E+01 0.846E+01   -.187E+02 -.391E+01 -.865E+01   -.653E-02 0.156E+01 0.195E+00   -.209E-03 0.898E-03 0.122E-02
   0.281E+02 0.431E+01 0.800E+01   -.333E+02 -.730E+01 -.800E+01   0.517E+01 0.300E+01 -.756E-02   -.479E-04 -.875E-04 0.905E-03
   -.138E+02 -.225E+02 0.139E+02   0.210E+02 0.173E+02 -.126E+02   -.723E+01 0.518E+01 -.127E+01   0.158E-02 -.215E-02 -.997E-02
   -.232E+02 -.655E+01 0.702E+01   0.285E+02 0.221E+01 -.672E+01   -.528E+01 0.434E+01 -.265E+00   0.116E-02 0.120E-02 -.583E-02
   0.352E+01 -.350E+02 0.294E+02   -.955E+01 0.314E+02 -.287E+02   0.608E+01 0.364E+01 -.735E+00   0.275E-02 0.225E-02 0.391E-02
   -.260E+01 -.187E+02 0.127E+02   0.280E+01 0.174E+02 -.130E+02   -.188E+00 0.126E+01 0.250E+00   0.914E-03 -.111E-02 0.260E-02
   -.126E+02 -.626E+01 0.661E+01   0.124E+02 0.615E+01 -.671E+01   0.174E+00 0.106E+00 0.930E-01   0.120E-02 0.131E-03 -.563E-03
   -.483E+01 -.106E+02 0.760E+01   0.469E+01 0.106E+02 -.758E+01   0.148E+00 -.201E-01 -.252E-01   0.756E-03 0.745E-04 -.226E-03
   -.145E+01 -.240E+01 0.783E+01   0.138E+01 0.246E+01 -.786E+01   0.588E-01 -.520E-01 0.291E-01   0.570E-03 0.618E-03 -.202E-03
   -.151E+01 -.464E+01 0.773E+01   0.152E+01 0.466E+01 -.774E+01   -.888E-02 -.164E-01 0.943E-02   0.112E-02 -.470E-03 -.144E-03
   0.215E+01 -.122E+01 0.627E+01   -.238E+01 0.128E+01 -.630E+01   0.224E+00 -.517E-01 0.267E-01   0.799E-03 0.673E-04 0.379E-03
   0.246E+01 -.318E+01 0.614E+01   -.266E+01 0.324E+01 -.613E+01   0.181E+00 -.667E-01 -.146E-01   0.567E-03 0.824E-03 0.330E-03
   0.129E+02 -.183E+01 0.641E+01   -.142E+02 0.225E+01 -.644E+01   0.132E+01 -.430E+00 0.204E-01   0.218E-04 0.129E-02 0.441E-03
   0.908E+01 -.759E+01 0.668E+01   -.981E+01 0.805E+01 -.669E+01   0.711E+00 -.457E+00 0.129E-01   0.169E-03 -.178E-03 0.152E-03
   -.337E+01 -.835E+01 0.142E+02   0.515E+01 0.749E+01 -.145E+02   -.181E+01 0.857E+00 0.368E+00   0.126E-02 0.192E-03 -.116E-02
   0.150E+01 -.318E+02 0.939E+01   -.131E+01 0.378E+02 -.945E+01   -.188E+00 -.601E+01 0.573E-01   -.761E-03 0.253E-03 0.119E-03
   -.102E+02 -.473E+01 0.587E+01   0.115E+02 0.442E+01 -.553E+01   -.129E+01 0.318E+00 -.335E+00   -.153E-03 -.110E-02 -.756E-03
   -.751E+01 -.109E+02 0.815E+01   0.823E+01 0.108E+02 -.818E+01   -.710E+00 0.930E-01 0.227E-01   -.394E-03 0.315E-03 0.136E-03
   -.646E-02 -.591E+01 0.969E+01   -.335E+00 0.567E+01 -.980E+01   0.342E+00 0.238E+00 0.102E+00   0.143E-03 -.879E-04 0.912E-03
   -.440E+01 -.582E+01 0.795E+01   0.449E+01 0.568E+01 -.796E+01   -.970E-01 0.152E+00 0.939E-02   0.101E-02 -.617E-03 0.285E-03
   0.134E+01 0.662E+01 -.623E+03   -.176E+01 -.681E+01 0.606E+03   0.433E+00 0.184E+00 0.176E+02   0.362E-01 -.561E-02 0.334E-02
   0.664E+00 -.698E+00 -.172E+02   -.171E-12 0.226E-12 -.227E-12   -.713E+00 0.716E+00 0.171E+02   0.414E-01 -.805E-02 -.653E-02

 POSITION                                       TOTAL-FORCE (eV/Angst)
     -7.42865     12.75874      7.46514        -0.002476      0.011267      0.002235
      0.00051      1.41944      7.46602         0.016321      0.015156      0.002814
      2.48248      0.02110      7.46296        -0.011175      0.003866     -0.001377
      2.48047      1.44299      7.47406        -0.014699      0.010446     -0.000622
      4.95571      0.01953      7.46589        -0.026398      0.003420     -0.001538
      4.95664      1.44178      7.47559        -0.009613      0.003981     -0.002595
      0.00368     12.74476      7.46588        -0.001932      0.011511     -0.002756
      7.43707      1.40775      7.46520         0.006776      0.002914     -0.001229
      2.47305     12.71532      7.47446         0.017641      0.007360      0.000050
      9.90377      1.37939      7.46368        -0.003933      0.007815     -0.002835
      4.95002     12.72483      7.47397         0.013310      0.003446     -0.002993
     12.37911      1.38483      7.46515         0.001968      0.008577     -0.005180
     13.61416      2.10296      7.46701         0.008208      0.004508     -0.000884
     -1.24866      3.53347      7.47740         0.018640      0.002205      0.000074
      1.23945      2.14386      7.47627         0.003560      0.010117      0.000553
      1.23808      3.57124      7.50246         0.001582     -0.003780      0.000002
      3.71896      2.16695      7.49032        -0.012526      0.010269     -0.002351
      3.71914      3.58679      7.53530        -0.006077     -0.007368      0.000006
      6.19789      2.13328      7.47652         0.002840     -0.002055     -0.003844
      6.19937      3.55807      7.50059        -0.008494      0.019565      0.002521
      8.67604      2.10175      7.46313         0.012903      0.011790      0.002497
      8.68073      3.52290      7.47100         0.005694      0.025920      0.003873
     11.14278      2.09213      7.46396        -0.006914      0.011088     -0.005689
     11.14467      3.51607      7.46534         0.003009      0.003076     -0.003593
     12.37772      4.23166      7.47358         0.011105     -0.011101     -0.001429
     -2.48553      5.66742      7.48067         0.009577      0.001657     -0.002499
     -0.01457      4.25134      7.50160         0.015683     -0.015919     -0.004144
     -0.03786      5.66847      7.52587        -0.013790     -0.013808     -0.012173
      2.47601      4.31498      7.55007        -0.004860     -0.015987      0.003047
      2.43376      5.73009      7.63802        -0.010952     -0.021246     -0.002729
      4.96300      4.30012      7.55104        -0.004381     -0.012060      0.004824
      5.00728      5.71335      7.64822         0.012864     -0.013690     -0.008884
      7.44943      4.23970      7.49685         0.010502      0.011984      0.004794
      7.47343      5.65718      7.52270         0.004608     -0.002580      0.009754
      9.91393      4.23145      7.46837         0.006489     -0.008924     -0.000159
      9.92084      5.65605      7.47377        -0.014671      0.000863     -0.000001
     -3.71126      6.38110      7.47289         0.004033      0.004577      0.000276
     -3.71126      7.80232      7.47334        -0.014502     -0.000101     -0.001576
     -1.26385      6.38420      7.50492         0.008677      0.016827     -0.012730
     -1.26406      7.80913      7.50314        -0.011728     -0.008071     -0.016759
      1.18265      6.37740      7.57692         0.000735     -0.007214      0.008845
      1.17847      7.80852      7.57914        -0.004316     -0.016398      0.024961
      6.25238      6.36445      7.58040         0.006304      0.012343      0.004301
      6.25046      7.80130      7.57630         0.014403     -0.008886     -0.009533
      8.70096      6.37119      7.49588        -0.011395     -0.001435      0.006378
      8.70017      7.79400      7.49560        -0.010100     -0.019968      0.008945
     -4.93770      8.51722      7.47419        -0.005657     -0.008905      0.004426
     -4.94289      9.94014      7.46859        -0.010645      0.000264      0.000308
     -2.48381      8.51726      7.48100        -0.018211     -0.000881     -0.011912
     -2.47239      9.93777      7.47420        -0.010863     -0.013581     -0.006563
     -0.03027      8.52390      7.51986        -0.007987     -0.017826      0.001812
     -0.00456      9.93852      7.49713         0.015875      0.015035     -0.001503
      2.41619      8.47017      7.66274        -0.013059      0.005205      0.024788
      2.45441      9.87048      7.56316         0.022318     -0.001692      0.029030
      5.00028      8.44909      7.63429         0.032155     -0.003595     -0.027634
      4.94504      9.86005      7.54911        -0.001220      0.012653     -0.009999
      7.47132      8.50754      7.52044        -0.018469     -0.003458      0.002998
      7.44323      9.92368      7.49555         0.010923     -0.010684     -0.001065
     -6.17952     10.64829      7.47088        -0.010118      0.007209      0.002192
     -6.18398     12.06641      7.46309        -0.000868     -0.000909      0.002125
     -3.70720     10.65204      7.46549        -0.001848      0.002834     -0.002248
     -3.71128     12.07203      7.46366        -0.016102     -0.008984     -0.002540
     -1.23494     10.64953      7.47688        -0.006991     -0.006671     -0.007659
     -1.24377     12.06686      7.46750        -0.024226     -0.005126     -0.003556
      1.22912     10.61364      7.49949        -0.023489      0.000686      0.009237
      1.23623     12.02044      7.47552         0.008405     -0.017262      0.001191
      3.70061     10.58834      7.53828         0.021942      0.000585      0.003561
      3.71548     12.00213      7.48947         0.010327      0.019900      0.001492
      6.18833     10.60288      7.50021        -0.000996     -0.009141     -0.007786
      6.19116     12.02487      7.47664        -0.002543      0.011840     -0.005517
      3.73332      7.08840      8.31591         0.038848     -0.013454      0.024170
    total drift:                               -0.007221      0.010221     -0.028723

  FREE ENERGIE OF THE ION-ELECTRON SYSTEM (eV)
  free  energy   TOTEN  =      -653.49317235 eV

  energy  without entropy=     -653.46293324  energy(sigma->0) =     -653.47805280

 d Force = 0.6453236E-03[ 0.433E-03, 0.857E-03]  d Energy = 0.6100783E-03 0.352E-04
 d Force = 0.4134183E+00[ 0.418E+00, 0.409E+00]  d Ewald  = 0.5710010E+01-0.530E+01

 Conjugate gradient step on ions:
 trial-energy change:   -0.000610  1 .order   -0.000649   -0.000883   -0.000416
  (g-gl).g = 0.147E-02      g.g   = 0.162E-02  gl.gl    = 0.134E-02
 g(Force)  = 0.158E-02   g(Stress)= 0.391E-04 ortho     =-0.340E-04
 gamma     =   1.09671
 trial     =   0.55951
 opt step  =   1.05767  (harmonic =   1.05767) maximal distance =0.00725635
 next E    =  -653.493397   (d E  =  -0.00083)

 reached required accuracy - stopping structural energy minimisation