 vasp.5.4.4.18Apr17-6-g9f103f2a35 (build Nov  8 2022 18:58:45) complex
 executed on             LinuxGNU date 2023.04.12  19:57:40

 INCAR:
 POTCAR:    PAW_PBE C 08Apr2002
 POTCAR:    PAW_PBE N 08Apr2002
 POTCAR:    PAW_PBE Ge_d 03Jul2007
 POTCAR:    PAW_PBE C 08Apr2002
 POTCAR:    PAW_PBE O 08Apr2002
 POTCAR:    PAW_PBE C 08Apr2002
   VRHFIN =C: s2p2

   TITEL  = PAW_PBE C 08Apr2002
   POMASS =   12.011; ZVAL   =    4.000    mass and valenz
   ENMAX  =  400.000; ENMIN  =  300.000 eV

[...]

   TITEL  = PAW_PBE Ge_d 03Jul2007
   POMASS =   72.610; ZVAL   =   14.000    mass and valenz
   ENMAX  =  310.294; ENMIN  =  232.720 eV

[...]

   TITEL  = PAW_PBE O 08Apr2002
   POMASS =   16.000; ZVAL   =    6.000    mass and valenz
   ENMAX  =  400.000; ENMIN  =  300.000 eV

 Optimization of the real space projectors (new method)

 maximal supplied QI-value         = 25.13
 optimisation between [QCUT,QGAM] = [ 10.56, 21.36] = [ 31.20,127.80] Ry
 Optimized for a Real-space Cutoff    1.24 Angstroem

   l    n(q)    QCUT    max X(q) W(low)/X(q) W(high)/X(q)  e(spline)
   0      8    10.556   115.676    0.42E-03    0.71E-03    0.20E-06
   0      8    10.556    87.132    0.41E-03    0.71E-03    0.20E-06
   1      7    10.556     4.429    0.22E-03    0.39E-03    0.12E-06
   1      7    10.556     2.733    0.16E-03    0.27E-03    0.14E-06
 Optimization of the real space projectors (new method)

[...]

   l    n(q)    QCUT    max X(q) W(low)/X(q) W(high)/X(q)  e(spline)
   0      8    10.556   115.676    0.42E-03    0.71E-03    0.20E-06
   0      8    10.556    87.132    0.41E-03    0.71E-03    0.20E-06
   1      7    10.556     4.429    0.22E-03    0.39E-03    0.12E-06
   1      7    10.556     2.733    0.16E-03    0.27E-03    0.14E-06
 Optimization of the real space projectors (new method)

 maximal supplied QI-value         = 24.76
 optimisation between [QCUT,QGAM] = [ 10.64, 21.29] = [ 31.73,126.92] Ry
 Optimized for a Real-space Cutoff    1.24 Angstroem

   l    n(q)    QCUT    max X(q) W(low)/X(q) W(high)/X(q)  e(spline)
   0      8    10.645    20.381    0.39E-03    0.65E-03    0.15E-06
   0      8    10.645    15.268    0.42E-03    0.70E-03    0.17E-06
   1      7    10.645     5.964    0.38E-03    0.66E-03    0.17E-06
   1      7    10.645     5.382    0.31E-03    0.55E-03    0.16E-06
  PAW_PBE C 08Apr2002                   :
  PAW_PBE N 08Apr2002                   :
  PAW_PBE Ge_d 03Jul2007                :
  PAW_PBE C 08Apr2002                   :
  PAW_PBE O 08Apr2002                   :

 POSCAR: POSCAR-c3n4
  positions in cartesian coordinates
 exchange correlation table for  LEXCH =        8
   RHO(1)=    0.500       N(1)  =     2000
   RHO(2)=  100.500       N(2)  =     4000

 ion  position               nearest neighbor table
   1  0.106  0.214  0.444-  26 1.34  46 1.34  25 1.41
   2  0.288  0.399  0.451-  29 1.32  35 1.39  25 1.43
   3  0.104  0.392  0.445-  44 1.32  39 1.38  25 1.43
   4  0.447  0.064  0.524-  30 1.32  27 1.34  48 1.41
   5  0.453  0.401  0.430-  28 1.33  29 1.34  56 1.43
   6  0.112  0.053  0.467-  26 1.32  31 1.33  32 1.40
   7  0.096  0.712  0.502-  54 1.33  34 1.36  33 1.40
   8  0.284  0.890  0.519-  27 1.34  37 1.35  33 1.42
   9  0.109  0.895  0.516-  31 1.33  52 1.34  33 1.43
  10  0.448  0.548  0.520-  38 1.32  56 1.35  35 1.36
  11  0.445  0.885  0.507-  37 1.34  36 1.34  48 1.38
  12  0.087  0.542  0.499-  34 1.32  40 1.35  39 1.36
  13  0.616  0.223  0.491-  42 1.35  30 1.35  41 1.40
  14  0.780  0.390  0.418-  45 1.35  51 1.36  41 1.40
  15  0.610  0.394  0.453-  28 1.34  55 1.34  41 1.45
  16  0.940  0.052  0.479-  46 1.32  43 1.33  32 1.40
  17  0.941  0.387  0.412-  45 1.32  44 1.34  40 1.42
  18  0.623  0.066  0.530-  42 1.33  47 1.34  48 1.41
  19  0.613  0.711  0.549-  50 1.33  38 1.37  49 1.41
  20  0.790  0.897  0.541-  43 1.33  53 1.34  49 1.45
  21  0.609  0.892  0.539-  47 1.34  36 1.35  49 1.44
  22  0.938  0.563  0.438-  51 1.31  54 1.35  40 1.42
  23  0.954  0.902  0.552-  52 1.34  53 1.34  32 1.40
  24  0.621  0.555  0.508-  55 1.32  50 1.33  56 1.41
  25  0.167  0.335  0.443-   1 1.41   3 1.43   2 1.43
  26  0.165  0.161  0.439-   6 1.32   1 1.34
  27  0.336  0.002  0.540-   8 1.34   4 1.34
  28  0.512  0.352  0.410-   5 1.33  15 1.34
  29  0.345  0.361  0.408-   2 1.32   5 1.34
  30  0.506  0.177  0.511-   4 1.32  13 1.35
  31  0.159  0.988  0.464-   9 1.33   6 1.33
  32  0.002  0.002  0.501-  16 1.40  23 1.40   6 1.40
  33  0.165  0.831  0.518-   7 1.40   8 1.42   9 1.43
  34  0.134  0.645  0.536-  12 1.32   7 1.36
  35  0.334  0.491  0.509-  10 1.36   2 1.39  57 2.06
  36  0.503  0.831  0.508-  11 1.34  21 1.35
  37  0.333  0.829  0.497-  11 1.34   8 1.35
  38  0.499  0.648  0.563-  10 1.32  19 1.37
  39  0.142  0.484  0.503-  12 1.36   3 1.38  57 2.08
  40  0.988  0.496  0.454-  12 1.35  22 1.42  17 1.42
  41  0.667  0.330  0.447-  13 1.40  14 1.40  15 1.45
  42  0.680  0.178  0.513-  18 1.33  13 1.35
  43  0.827  0.986  0.486-  20 1.33  16 1.33
  44  0.011  0.348  0.397-   3 1.32  17 1.34
  45  0.830  0.330  0.397-  17 1.32  14 1.35
  46  0.993  0.161  0.453-  16 1.32   1 1.34
  47  0.669  0.005  0.557-  21 1.34  18 1.34
  48  0.505  0.004  0.516-  11 1.38  18 1.41   4 1.41
  49  0.668  0.832  0.552-  19 1.41  21 1.44  20 1.45
  50  0.675  0.666  0.530-  19 1.33  24 1.33
  51  0.832  0.507  0.414-  22 1.31  14 1.36
  52  0.016  0.853  0.567-  23 1.34   9 1.34
  53  0.849  0.860  0.584-  20 1.34  23 1.34
  54  0.004  0.677  0.452-   7 1.33  22 1.35
  55  0.668  0.491  0.502-  24 1.32  15 1.34
  56  0.506  0.502  0.485-  10 1.35  24 1.41   5 1.43
  57  0.287  0.593  0.576-  35 2.06  39 2.08  58 2.48
  58  0.287  0.593  0.741-  59 1.16  57 2.48
  59  0.232  0.530  0.797-  58 1.16

IMPORTANT INFORMATION: All symmetrisations will be switched off!
NOSYMM: (Re-)initialisation of all symmetry stuff for point group C_1.

 KPOINTS: K-Points

Automatic generation of k-mesh.
Space group operators:
 irot       det(A)        alpha          n_x          n_y          n_z        tau_x        tau_y        tau_z
    1     1.000000     0.000000     1.000000     0.000000     0.000000     0.000000     0.000000     0.000000

 Subroutine IBZKPT returns following result:

 Found      4 irreducible k-points:

 Following reciprocal coordinates:
            Coordinates               Weight
  0.000000  0.000000  0.000000      1.000000
  0.500000  0.000000  0.000000      1.000000
  0.000000  0.500000  0.000000      1.000000
  0.500000  0.500000  0.000000      1.000000

 Following cartesian coordinates:
            Coordinates               Weight
  0.000000  0.000000  0.000000      1.000000
  0.036415  0.021552  0.000000      1.000000
  0.000594  0.043104  0.000000      1.000000
  0.037009  0.064656  0.000000      1.000000

 SYSTEM =  unknown system
 POSCAR =  POSCAR-c3n4

 Startparameter for this run:
   NWRITE =      2    write-flag & timer
   PREC   = normal    normal or accurate (medium, high low for compatibility)
   ISTART =      0    job   : 0-new  1-cont  2-samecut
   ICHARG =      2    charge: 1-file 2-atom 10-const
   ISPIN  =      2    spin polarized calculation?
   LNONCOLLINEAR =      F non collinear calculations
   LSORBIT =      F    spin-orbit coupling
   INIWAV =      1    electr: 0-lowe 1-rand  2-diag
   LASPH  =      F    aspherical Exc in radial PAW
   METAGGA=      F    non-selfconsistent MetaGGA calc.

 Electronic Relaxation 1
   ENCUT  =  440.0 eV  32.34 Ry    5.69 a.u.  23.68 23.24 25.66*2*pi/ulx,y,z
   ENINI  =  440.0     initial cutoff
   ENAUG  =  644.9 eV  augmentation charge cutoff
   NELM   =     50;   NELMIN=  2; NELMDL= -5     # of ELM steps
   EDIFF  = 0.1E-03   stopping-criterion for ELM
   LREAL  =      T    real-space projection
   NLSPLINE    = F    spline interpolate recip. space projectors
   LCOMPAT=      F    compatible to vasp.4.4
   GGA_COMPAT  = T    GGA compatible to vasp.4.4-vasp.4.6
   LMAXPAW     = -100 max onsite density
   LMAXMIX     =    2 max onsite mixed and CHGCAR
   VOSKOWN=      0    Vosko Wilk Nusair interpolation
   ROPT   =   -0.00050  -0.00050  -0.00050  -0.00050
   ROPT   =   -0.00050
 Ionic relaxation
   EDIFFG = -.1E+00   stopping-criterion for IOM
   NSW    =    400    number of steps for IOM
   NBLOCK =      1;   KBLOCK =    400    inner block; outer block
   IBRION =      2    ionic relax: 0-MD 1-quasi-New 2-CG
   NFREE  =      1    steps in history (QN), initial steepest desc. (CG)
   ISIF   =      2    stress and relaxation
   IWAVPR =     11    prediction:  0-non 1-charg 2-wave 3-comb
   ISYM   =      0    0-nonsym 1-usesym 2-fastsym
   LCORR  =      T    Harris-Foulkes like correction to forces

   POTIM  = 0.2000    time-step for ionic-motion
   TEIN   =    0.0    initial temperature
   TEBEG  =    0.0;   TEEND  =   0.0 temperature during run
   SMASS  =  -3.00    Nose mass-parameter (am)
   estimated Nose-frequenzy (Omega)   =  0.10E-29 period in steps =****** mass=  -0.438E-26a.u.
   SCALEE = 1.0000    scale energy and forces
   NPACO  =    256;   APACO  = 16.0  distance and # of slots for P.C.
   PSTRESS=    0.0 pullay stress

  Mass of Ions in am
   POMASS =  12.01 14.00 72.61 12.01 16.00
  Ionic Valenz
   ZVAL   =   4.00  5.00 14.00  4.00  6.00
  Atomic Wigner-Seitz radii
  virtual crystal weights
   VCA    =   1.00  1.00  1.00  1.00  1.00
   NELECT =     280.0000    total number of electrons
   NUPDOWN=      -1.0000    fix difference up-down

 DOS related values:
   EMIN   =  10.00;   EMAX   =-10.00  energy-range for DOS
   EFERMI =   0.00
   ISMEAR =     0;   SIGMA  =   0.10  broadening in eV -4-tet -1-fermi 0-gaus

 Electronic relaxation 2 (details)
   IALGO  =     58    algorithm
   LDIAG  =      T    sub-space diagonalisation (order eigenvalues)
   LSUBROT=      F    optimize rotation matrix (better conditioning)
   TURBO    =      0    0=normal 1=particle mesh
   IRESTART =      0    0=no restart 2=restart with 2 vectors
   NREBOOT  =      0    no. of reboots
   NMIN     =      0    reboot dimension
   EREF     =   0.00    reference energy to select bands
   IMIX   =      4    mixing-type and parameters
     AMIX     =   0.05;   BMIX     =  0.00
     AMIX_MAG =   0.20;   BMIX_MAG =  0.00
     AMIN     =   0.05
     WC   =   100.;   INIMIX=   1;  MIXPRE=   1;  MAXMIX= -45

 Intra band minimization:
   WEIMIN = 0.0010     energy-eigenvalue tresh-hold
   EBREAK =  0.15E-06  absolut break condition
   DEPER  =   0.30     relativ break condition

   TIME   =   0.40     timestep for ELM

  volume/ion in A,a.u.               =      40.83       275.51
  Fermi-wavevector in a.u.,A,eV,Ry     =   0.798973  1.509840  8.685388  0.638358
  Thomas-Fermi vector in A             =   1.905987

 Write flags
   LWAVE        =      F    write WAVECAR
   LDOWNSAMPLE  =      F    k-point downsampling of WAVECAR
   LCHARG       =      F    write CHGCAR
   LVTOT        =      F    write LOCPOT, total local potential
   LVHAR        =      F    write LOCPOT, Hartree potential only
   LELF         =      F    write electronic localiz. function (ELF)
   LORBIT       =      0    0 simple, 1 ext, 2 COOP (PROOUT), +10 PAW based schemes

 Dipole corrections
[...]
      36 -72.3815      37 -72.3923      38 -72.7359      39 -73.4107      40 -74.7478
      41 -74.2156      42 -72.2687      43 -72.2071      44 -72.4543      45 -72.4160
      46 -72.2006      47 -72.2159      48 -74.6455      49 -74.3058      50 -72.4167
      51 -72.2749      52 -72.1925      53 -72.1514      54 -72.3697      55 -72.2686
      56 -74.7859      57 -82.3034      58 -59.7015      59 -81.4254

 E-fermi :  -2.1165     XC(G=0):  -3.1124     alpha+bet : -2.3235

[...]

 spin component 2

[...]

 k-point     4 :       0.5000    0.5000    0.0000
  band No.  band energies     occupation
      1     -27.6105      1.00000
      2     -27.6088      1.00000
      3     -27.5849      1.00000
      4     -27.5532      1.00000
      5     -27.5364      1.00000
      6     -27.1273      1.00000
      7     -26.2209      1.00000
      8     -26.1724      1.00000
      9     -25.9937      1.00000
     10     -25.9394      1.00000
     11     -24.9707      1.00000
     12     -24.9245      1.00000
     13     -24.6314      1.00000
     14     -24.5819      1.00000
     15     -23.9340      1.00000
     16     -23.8716      1.00000
     17     -23.7862      1.00000
     18     -23.7512      1.00000
     19     -23.1849      1.00000
     20     -23.1040      1.00000
     21     -22.7719      1.00000
     22     -22.6822      1.00000
     23     -22.0040      1.00000
     24     -21.9213      1.00000
     25     -21.8525      1.00000
     26     -21.8053      1.00000
     27     -21.7662      1.00000
     28     -21.7286      1.00000
     29     -21.5794      1.00000
     30     -21.5698      1.00000
     31     -21.0762      1.00000
     32     -20.9819      1.00000
     33     -20.8715      1.00000
     34     -20.8115      1.00000
     35     -20.4372      1.00000
     36     -20.4060      1.00000
     37     -20.1983      1.00000
     38     -20.1740      1.00000
     39     -17.3795      1.00000
     40     -17.3545      1.00000
     41     -17.2081      1.00000
     42     -17.0767      1.00000
     43     -16.9613      1.00000
     44     -16.8831      1.00000
     45     -16.7950      1.00000
     46     -16.6981      1.00000
     47     -15.6039      1.00000
     48     -15.5568      1.00000
     49     -15.4626      1.00000
     50     -15.3272      1.00000
     51     -14.6329      1.00000
     52     -14.4568      1.00000
     53     -14.3664      1.00000
     54     -14.1705      1.00000
     55     -14.0093      1.00000
     56     -13.8936      1.00000
     57     -13.8282      1.00000
     58     -13.6954      1.00000
     59     -13.5923      1.00000
     60     -13.5271      1.00000
[...]
    158       1.1846      0.00000
    159       1.3699      0.00000
    160       1.4088      0.00000
    161       1.4758      0.00000
    162       1.6037      0.00000
    163       1.6245      0.00000
    164       1.7584      0.00000
    165       1.7988      0.00000
    166       1.9822      0.00000
    167       2.1153      0.00000
    168       2.1328      0.00000
    169       2.1947      0.00000
    170       2.2779      0.00000
    171       2.4192      0.00000
    172       2.5220      0.00000

[...]

 soft charge-density along one line, spin component           2
         0         1         2         3         4         5         6         7         8         9
 total charge-density along one line

------------------------ aborting loop because EDIFF is reached ----------------------------------------

         DFTD3 V3.0 Rev 1
 Edisp (eV)   -4.16338

 E6    (eV) :    -2.9260
 E8    (eV) :    -1.2374
 % E8        : 29.72

  FORCE on cell =-STRESS in cart. coord.  units (eV):
  Direction    XX          YY          ZZ          XY          YZ          ZX
  Alpha Z   154.69643   154.69643   154.69643
  Ewald   34981.43383 32379.60862-40406.09299  -228.07253   936.80710   436.85708
  Hartree 36152.89368 34270.96325-30836.91159  -147.02734   598.85321   274.05260
  E(xc)   -1169.49763 -1172.22044 -1195.10545    -0.30647     1.40047     0.72712
  Local  -74517.07263-70081.44972 67368.10636   370.82700 -1512.18967  -698.45622
  n-local  -491.35530  -493.96681  -482.35103    -3.03096     2.46167    -0.12278
  augment   150.86704   151.58307   155.78075    -0.06146     0.39384     0.08699
  Kinetic  4736.03967  4787.88396  5234.94414     7.05790   -27.68601   -13.21845
  Fock        0.00000     0.00000     0.00000     0.00000     0.00000     0.00000
  vdW        -0.85012    -1.22985    -0.28391    -0.05353     0.09874     0.08228
  Total      -2.84505    -4.13149    -7.21729    -0.66738     0.13935     0.00862
  in kB      -1.89241    -2.74809    -4.80063    -0.44391     0.09269     0.00573

 VOLUME and BASIS-vectors are now :
  energy-cutoff  :      440.00
  volume of cell :     2408.72
      direct lattice vectors                 reciprocal lattice vectors
    13.843424235 -0.190740474  0.000000000     0.072830369  0.043104114 -0.000000000
    -6.921712117 11.695190994  0.000000000     0.001187813  0.086208229 -0.000000000
     0.000000000  0.000000000 15.000000000    -0.000000000 -0.000000000  0.066666667

  length of vectors
    13.844738223 13.589981274 15.000000000     0.084629944  0.086216411  0.066666667

 FORCES acting on ions:
    Electron-Ion                     Ewald-Force                    Non-Local-Force
   -.532E+01 0.967E+01 0.120E+03   0.552E+01 -.130E+02 -.119E+03   -.208E+00 0.336E+01 -.161E+01
   -.410E+00 0.359E+02 0.127E+03   0.329E+01 -.358E+02 -.127E+03   -.288E+01 -.144E+00 0.193E+00
   -.130E+02 0.376E+02 0.125E+03   0.104E+02 -.373E+02 -.126E+03   0.265E+01 -.247E+00 0.535E+00
   0.663E+02 -.579E+02 -.767E+02   -.689E+02 0.593E+02 0.769E+02   0.257E+01 -.142E+01 -.220E+00
   -.162E+02 0.528E+02 0.193E+03   0.167E+02 -.555E+02 -.195E+03   -.419E+00 0.273E+01 0.145E+01
   -.603E+02 -.160E+02 0.944E+02   0.629E+02 0.171E+02 -.953E+02   -.262E+01 -.128E+01 0.101E+01
   0.486E+02 -.312E+02 -.210E+02   -.491E+02 0.287E+02 0.201E+02   0.489E+00 0.253E+01 0.926E+00
   0.320E+02 -.236E+02 -.372E+02   -.293E+02 0.254E+02 0.368E+02   -.266E+01 -.178E+01 0.402E+00
   -.480E+01 -.245E+01 -.514E+02   0.171E+01 0.400E+01 0.512E+02   0.306E+01 -.154E+01 0.224E+00
   -.355E+02 0.250E+02 -.546E+02   0.344E+02 -.235E+02 0.556E+02   0.108E+01 -.149E+01 -.924E+00
   -.412E+01 0.337E+01 0.584E+02   0.406E+01 -.617E+01 -.578E+02   0.559E-01 0.285E+01 -.647E+00
   0.405E+02 0.226E+02 -.471E+02   -.393E+02 -.208E+02 0.478E+02   -.127E+01 -.184E+01 -.661E+00
   -.320E+01 -.174E+02 -.957E+01   0.331E+01 0.140E+02 0.102E+02   -.119E+00 0.336E+01 -.621E+00
   0.385E+02 0.291E+02 0.186E+03   -.355E+02 -.276E+02 -.185E+03   -.284E+01 -.144E+01 -.552E+00
   -.141E+02 0.231E+02 0.854E+02   0.111E+02 -.216E+02 -.849E+02   0.301E+01 -.140E+01 -.532E+00
   0.623E+02 -.144E+02 0.661E+02   -.649E+02 0.156E+02 -.665E+02   0.265E+01 -.133E+01 0.532E+00
   0.468E+01 0.745E+02 0.205E+03   -.470E+01 -.771E+02 -.207E+03   -.100E-01 0.266E+01 0.140E+01
   -.631E+02 -.603E+02 -.875E+02   0.656E+02 0.617E+02 0.879E+02   -.256E+01 -.144E+01 -.421E+00
   -.439E+02 -.303E+02 -.124E+03   0.442E+02 0.278E+02 0.123E+03   -.279E+00 0.246E+01 0.971E+00
   0.836E+01 -.314E+01 -.988E+02   -.523E+01 0.462E+01 0.983E+02   -.310E+01 -.147E+01 0.471E+00
   -.352E+02 -.187E+02 -.757E+02   0.326E+02 0.206E+02 0.749E+02   0.267E+01 -.186E+01 0.783E+00
   0.729E+02 -.663E+02 0.137E+03   -.753E+02 0.681E+02 -.137E+03   0.255E+01 -.181E+01 0.106E+00
   -.993E+01 0.411E+02 -.174E+03   0.996E+01 -.443E+02 0.175E+03   -.375E-01 0.317E+01 -.135E+01
   -.848E+02 -.235E+02 -.514E+02   0.875E+02 0.243E+02 0.523E+02   -.284E+01 -.826E+00 -.924E+00
   -.142E+02 0.406E+02 0.174E+03   0.146E+02 -.413E+02 -.177E+03   -.367E+00 0.640E+00 0.310E+01
   -.188E+03 -.282E+02 0.220E+03   0.219E+03 0.447E+02 -.232E+03   -.307E+02 -.165E+02 0.122E+02
   0.155E+03 -.156E+03 -.219E+03   -.186E+03 0.172E+03 0.230E+03   0.303E+02 -.160E+02 -.111E+02
   0.157E+01 0.166E+03 0.382E+03   0.118E+01 -.195E+03 -.404E+03   -.273E+01 0.285E+02 0.225E+02
   -.377E+02 0.142E+03 0.400E+03   0.352E+02 -.169E+03 -.424E+03   0.248E+01 0.268E+02 0.246E+02
   0.187E+03 -.982E+02 -.101E+03   -.217E+03 0.118E+03 0.101E+03   0.294E+02 -.200E+02 -.800E-01
   -.139E+03 -.794E+02 0.245E+03   0.169E+03 0.887E+02 -.265E+03   -.298E+02 -.925E+01 0.194E+02
   -.460E+01 -.485E+00 -.190E+02   0.480E+01 0.464E+00 0.201E+02   -.200E+00 0.280E-01 -.108E+01
   0.250E+02 -.282E+02 -.815E+02   -.253E+02 0.287E+02 0.856E+02   0.302E+00 -.515E+00 -.406E+01
   0.198E+02 -.575E+02 -.267E+03   0.116E+01 0.702E+02 0.289E+03   -.208E+02 -.127E+02 -.226E+02
   0.131E+02 0.767E+02 -.552E+02   -.335E+02 -.721E+02 0.661E+02   0.204E+02 -.461E+01 -.110E+02
   -.295E+02 0.897E+02 0.135E+03   0.324E+02 -.123E+03 -.145E+03   -.295E+01 0.328E+02 0.981E+01
   0.107E+02 0.854E+02 0.151E+03   -.128E+02 -.118E+03 -.161E+03   0.209E+01 0.325E+02 0.100E+02
   0.141E+02 -.567E+02 -.294E+03   -.394E+02 0.699E+02 0.311E+03   0.252E+02 -.132E+02 -.171E+02
   -.924E+01 0.822E+02 -.861E+02   0.281E+02 -.779E+02 0.101E+03   -.189E+02 -.433E+01 -.149E+02
   0.551E+02 0.215E+02 0.780E+02   -.595E+02 -.244E+02 -.772E+02   0.438E+01 0.292E+01 -.783E+00
   0.142E+02 0.378E+02 0.142E+03   -.161E+02 -.393E+02 -.146E+03   0.190E+01 0.145E+01 0.384E+01
   -.184E+03 -.103E+03 -.112E+03   0.213E+03 0.122E+03 0.113E+03   -.298E+02 -.192E+02 -.910E+00
   0.143E+03 -.669E+02 0.192E+03   -.174E+03 0.759E+02 -.209E+03   0.308E+02 -.890E+01 0.167E+02
   0.125E+02 0.162E+03 0.414E+03   -.772E+01 -.190E+03 -.436E+03   -.478E+01 0.276E+02 0.229E+02
   0.650E+01 0.229E+03 0.349E+03   -.827E+01 -.263E+03 -.360E+03   0.176E+01 0.337E+02 0.111E+02
   0.189E+03 -.296E+02 0.135E+03   -.221E+03 0.473E+02 -.141E+03   0.313E+02 -.177E+02 0.571E+01
   -.142E+03 -.159E+03 -.269E+03   0.170E+03 0.175E+03 0.283E+03   -.288E+02 -.159E+02 -.142E+02
   0.406E+00 -.432E+02 -.104E+01   -.282E+00 0.448E+02 -.144E+01   -.124E+00 -.164E+01 0.247E+01
   -.255E+02 -.303E+02 -.169E+03   0.255E+02 0.322E+02 0.175E+03   0.248E-02 -.179E+01 -.541E+01
   -.225E+03 -.645E+02 -.852E+02   0.255E+03 0.829E+02 0.865E+02   -.304E+02 -.183E+02 -.128E+01
   0.174E+03 -.143E+03 0.298E+03   -.205E+03 0.158E+03 -.305E+03   0.308E+02 -.158E+02 0.703E+01
   0.404E+01 0.142E+03 -.358E+03   0.496E+00 -.170E+03 0.381E+03   -.456E+01 0.283E+02 -.226E+02
   -.365E+02 0.109E+03 -.405E+03   0.350E+02 -.136E+03 0.431E+03   0.153E+01 0.263E+02 -.260E+02
   0.188E+03 -.125E+03 0.232E+03   -.212E+03 0.148E+03 -.244E+03   0.240E+02 -.227E+02 0.123E+02
   -.165E+03 -.704E+02 -.172E+03   0.197E+03 0.792E+02 0.186E+03   -.319E+02 -.884E+01 -.142E+02
   -.529E+02 0.246E+02 0.507E+02   0.560E+02 -.269E+02 -.528E+02   -.308E+01 0.226E+01 0.211E+01
   0.349E+02 -.124E+03 -.660E+03   -.362E+02 0.140E+03 0.674E+03   0.130E+01 -.157E+02 -.144E+02
   -.812E+02 -.171E+03 -.238E+03   0.919E+02 0.194E+03 0.228E+03   -.107E+02 -.225E+02 0.106E+02
   0.956E+02 0.207E+03 -.483E+03   -.118E+03 -.255E+03 0.509E+03   0.228E+02 0.478E+02 -.253E+02
   -.916E+01 -.272E+02 0.103E+02   -.213E-12 0.568E-13 0.853E-12   0.916E+01 0.273E+02 -.102E+02

 POSITION                                       TOTAL-FORCE (eV/Angst)
     -0.01657      2.47281      6.65416        -0.004739      0.005307      0.006764
      1.22332      4.60172      6.76108         0.001224     -0.001810     -0.016794
     -1.27829      4.55851      6.67203        -0.004106     -0.006328     -0.018685
      5.74802      0.66111      7.85055        -0.025709     -0.016971     -0.004882
      3.49172      4.59896      6.45534        -0.006170     -0.003473      0.008462
      1.18472      0.59171      6.99760         0.017760     -0.061442      0.023244
     -3.59437      8.30225      7.51895        -0.037871      0.042023     -0.005111
     -2.22732     10.35289      7.78309        -0.039735      0.005059     -0.000344
     -4.68359     10.44566      7.73932        -0.011541     -0.004974      0.000042
      2.40593      6.31767      7.78617        -0.037202      0.010393      0.024629
      0.03887     10.27187      7.59669         0.005167     -0.020053     -0.017381
     -2.54861      6.31621      7.46660         0.000815     -0.011804      0.015733
      6.98577      2.48872      7.35886         0.001548     -0.009100     -0.000265
      8.09882      4.40714      6.26350         0.034436      0.001596     -0.006052
      5.72168      4.49547      6.80233         0.009728      0.000881     -0.004911
     12.64416      0.42962      7.17996        -0.025854     -0.068390      0.031824
     10.34177      4.33310      6.17706        -0.023328      0.010786      0.003282
      8.16816      0.64793      7.94587         0.018921     -0.023490      0.001628
      3.56419      8.19489      8.23514         0.033913      0.026743      0.003143
      4.72220     10.33936      8.11303         0.013942      0.004735     -0.005312
      2.26050     10.31877      8.08596         0.018996      0.009357      0.008117
      9.08892      6.40020      6.57079         0.016715     -0.053397     -0.006824
      6.96952     10.35938      8.28866        -0.004970     -0.010327      0.008393
      4.76420      6.36550      7.61928        -0.024801     -0.021555      0.014101
     -0.01499      3.89134      6.62625        -0.001757     -0.029940      0.004435
      1.16360      1.84566      6.57640        -0.001704      0.032903     -0.020162
      4.64101     -0.04638      8.09814         0.021674      0.012742     -0.004526
      4.64940      4.02309      6.14982         0.029093     -0.029577      0.011070
      2.28198      4.13940      6.11681        -0.043422      0.000879      0.015602
      5.77463      1.96908      7.66329         0.004959      0.001771      0.006258
     -4.64325     11.52354      6.96903        -0.030275      0.027393     -0.012903
      0.01648      0.01848      7.51297         0.004206      0.005506     -0.006145
     -3.47235      9.67987      7.76835        -0.006830      0.025943     -0.020985
     -2.61313      7.51522      8.02250         0.038732      0.042737     -0.000784
      1.22074      5.68589      7.61901        -0.025215      0.011197     -0.048500
      1.20790      9.62000      7.61121        -0.027850     -0.010669     -0.010609
     -1.12894      9.63573      7.45400         0.027807     -0.007171     -0.005322
      2.42097      7.47677      8.42781        -0.035410      0.032759     -0.004684
     -1.38212      5.63672      7.52138         0.031359     -0.001304     -0.028355
     10.24239      5.60310      6.80784        -0.000372     -0.008412      0.008567
      6.95440      3.73523      6.71355        -0.014414     -0.034516     -0.030361
      8.17695      1.95154      7.69785        -0.000925      0.006736      0.005499
      4.62464     11.37381      7.28835         0.019330      0.011472     -0.002317
     -2.26447      4.05736      5.95119         0.049081      0.006280      0.028423
      9.20677      3.70019      5.95259        -0.009850     -0.019030      0.020492
     12.63177      1.68984      6.79408         0.006360      0.054522     -0.019151
      9.22238     -0.06942      8.35708        -0.012898      0.004017     -0.004050
      6.96100     -0.05052      7.73514         0.001139      0.006204     -0.011623
      3.48895      9.60131      8.27937         0.007115      0.038085     -0.009577
      4.74384      7.64762      7.96445        -0.000950      0.029782      0.005475
      8.00785      5.76378      6.19569        -0.009598      0.012502     -0.005247
     -5.68553      9.96615      8.49638        -0.020505      0.012002     -0.007830
      5.80559      9.88621      8.75965         0.015869      0.012440     -0.008534
     -4.63362      7.91448      6.78183         0.004048      0.034645      0.002634
      5.84316      5.61601      7.52811         0.028641     -0.014964      0.025539
      3.53160      5.76424      7.27495         0.007101     -0.012133      0.000707
     -0.11918      7.06645      8.49094         0.017191     -0.036942     -0.028687
     -0.05570      6.99013     11.44057        -0.014103     -0.049702      0.085158
     -0.50282      6.05167     11.93138         0.015233      0.028075      0.007691
    total drift:                               -0.006864      0.067845      0.115505

  FREE ENERGIE OF THE ION-ELECTRON SYSTEM (eV)
  free  energy   TOTEN  =      -496.50316706 eV

  energy  without entropy=     -496.45757072  energy(sigma->0) =     -496.48036889

 d Force = 0.3820045E-03[ 0.231E-04, 0.741E-03]  d Energy = 0.3633045E-03 0.187E-04
 d Force = 0.1412250E+01[ 0.141E+01, 0.141E+01]  d Ewald  = 0.1412250E+01 0.634E-06

 reached required accuracy - stopping structural energy minimisation