 vasp.5.4.4.18Apr17-6-g9f103f2a35 (build Jan 14 2022 15:04:31) complex

 executed on             LinuxIFC date 2023.01.23  17:52:24

 INCAR:
 POTCAR:    PAW_PBE C 08Apr2002
 POTCAR:    PAW_PBE N 08Apr2002
 POTCAR:    PAW_PBE C 08Apr2002
 POTCAR:    PAW_PBE Cr_pv 02Aug2007
 POTCAR:    PAW_PBE C 08Apr2002
   VRHFIN =C: s2p2

   TITEL  = PAW_PBE C 08Apr2002
   POMASS =   12.011; ZVAL   =    4.000    mass and valenz
   ENMAX  =  400.000; ENMIN  =  300.000 eV

[...]

   TITEL  = PAW_PBE C 08Apr2002
   POMASS =   12.011; ZVAL   =    4.000    mass and valenz
   ENMAX  =  400.000; ENMIN  =  300.000 eV

   TITEL  = PAW_PBE Cr_pv 02Aug2007
   POMASS =   51.996; ZVAL   =   12.000    mass and valenz
   ENMAX  =  265.681; ENMIN  =  199.261 eV

 Optimization of the real space projectors (new method)

 maximal supplied QI-value         = 25.13
 optimisation between [QCUT,QGAM] = [ 10.56, 21.36] = [ 31.20,127.80] Ry
 Optimized for a Real-space Cutoff    1.32 Angstroem

   l    n(q)    QCUT    max X(q) W(low)/X(q) W(high)/X(q)  e(spline)
   0      8    10.556   115.676    0.17E-03    0.39E-03    0.26E-06
   0      8    10.556    87.132    0.17E-03    0.39E-03    0.26E-06
   1      8    10.556     4.429    0.24E-03    0.31E-03    0.16E-06
   1      8    10.556     2.733    0.17E-03    0.22E-03    0.19E-06
 Optimization of the real space projectors (new method)

[...]

   l    n(q)    QCUT    max X(q) W(low)/X(q) W(high)/X(q)  e(spline)
   0      8    10.556   115.676    0.17E-03    0.39E-03    0.26E-06
   0      8    10.556    87.132    0.17E-03    0.39E-03    0.26E-06
   1      8    10.556     4.429    0.24E-03    0.31E-03    0.16E-06
   1      8    10.556     2.733    0.17E-03    0.22E-03    0.19E-06
 Optimization of the real space projectors (new method)

 maximal supplied QI-value         = 16.25
 optimisation between [QCUT,QGAM] = [ 10.73, 21.45] = [ 32.22,128.87] Ry
 Optimized for a Real-space Cutoff    1.53 Angstroem

   l    n(q)    QCUT    max X(q) W(low)/X(q) W(high)/X(q)  e(spline)
   1      9    10.726     3.262    0.64E-04    0.35E-04    0.11E-06
   1      9    10.726     5.741    0.13E-03    0.48E-04    0.19E-06
   2      9    10.726    60.438    0.12E-03    0.29E-04    0.13E-06
   2      9    10.726    55.380    0.12E-03    0.29E-04    0.13E-06
   0     10    10.726    80.273    0.43E-04    0.74E-05    0.81E-07
   0     10    10.726    36.654    0.34E-04    0.61E-05    0.73E-07
  PAW_PBE C 08Apr2002                   :
  PAW_PBE N 08Apr2002                   :
  PAW_PBE C 08Apr2002                   :
  PAW_PBE Cr_pv 02Aug2007               :

 POSCAR: POSCAR-clean
  positions in direct lattice
  velocities in cartesian coordinates
 exchange correlation table for  LEXCH =        8
   RHO(1)=    0.500       N(1)  =     2000
   RHO(2)=  100.500       N(2)  =     4000

 VTST: version 3.2, (02/03/18)

 CHAIN: initializing optimizer

 OPT: Using VASP Conjugate-Gradient optimizer
 CHAIN: Read ICHAIN            0

 POSCAR: POSCAR-clean
  positions in direct lattice
  velocities in cartesian coordinates

 ion  position               nearest neighbor table
   1  1.000  0.999  0.498-  60 1.42   2 1.43  70 1.43
   2  0.056  0.111  0.498-  13 1.42   1 1.43  15 1.43
   3  0.168  0.002  0.498-   4 1.42  62 1.42  60 1.43
   4  0.223  0.113  0.498-   3 1.42  15 1.42  17 1.44
   5  0.334  0.002  0.498-   6 1.42  62 1.43  64 1.43
   6  0.390  0.113  0.498-   5 1.42  19 1.43  17 1.43
   7  0.500  1.000  0.498-  64 1.42   8 1.42  66 1.44
   8  0.556  0.112  0.498-  21 1.42   7 1.42  19 1.43
   9  0.666  0.998  0.498-  10 1.42  66 1.43  68 1.43
  10  0.722  0.109  0.498-   9 1.42  23 1.42  21 1.43
  11  0.832  0.997  0.498-  12 1.42  70 1.43  68 1.43
  12  0.888  0.109  0.498-  11 1.42  23 1.43  13 1.43
  13  0.999  0.165  0.498-  14 1.42   2 1.42  12 1.43
  14  0.055  0.277  0.498-  13 1.42  27 1.42  25 1.43
  15  0.167  0.168  0.498-  16 1.42   4 1.42   2 1.43
  16  0.223  0.279  0.500-  15 1.42  27 1.43  29 1.44
  17  0.335  0.170  0.499-  18 1.42   6 1.43   4 1.44
  18  0.391  0.282  0.502-  17 1.42  29 1.43  31 1.44
  19  0.501  0.169  0.498-  20 1.43   6 1.43   8 1.43
  20  0.557  0.280  0.500-  33 1.42  19 1.43  31 1.45
  21  0.667  0.166  0.498-  22 1.42   8 1.42  10 1.43
  22  0.723  0.277  0.498-  21 1.42  35 1.42  33 1.43
  23  0.833  0.165  0.498-  24 1.42  10 1.42  12 1.43
  24  0.888  0.277  0.498-  25 1.42  23 1.42  35 1.42
  25  0.999  0.332  0.498-  26 1.42  24 1.42  14 1.43
  26  0.054  0.444  0.499-  39 1.42  37 1.42  25 1.42
  27  0.165  0.333  0.500-  28 1.42  14 1.42  16 1.43
  28  0.219  0.444  0.502-  41 1.41  27 1.42  39 1.42
  29  0.335  0.337  0.503-  30 1.41  18 1.43  16 1.44
  30  0.388  0.448  0.509-  41 1.41  29 1.41  71 1.98
  31  0.503  0.339  0.504-  32 1.43  18 1.44  20 1.45
  32  0.562  0.451  0.510-  43 1.41  31 1.43  71 2.00
  33  0.668  0.333  0.500-  34 1.42  20 1.42  22 1.43
  34  0.725  0.444  0.501-  43 1.40  33 1.42  45 1.42
  35  0.834  0.333  0.498-  22 1.42  24 1.42  36 1.43
  36  0.890  0.445  0.498-  37 1.41  45 1.42  35 1.43
  37  1.000  0.500  0.498-  36 1.41  38 1.42  26 1.42
  38  0.055  0.611  0.498-  37 1.42  49 1.42  47 1.42
  39  0.165  0.500  0.500-  26 1.42  40 1.42  28 1.42
  40  0.220  0.611  0.500-  49 1.42  39 1.42  51 1.42
  41  0.329  0.499  0.505-  30 1.41  28 1.41  42 1.43
  42  0.385  0.612  0.505-  53 1.41  51 1.41  41 1.43
  43  0.672  0.500  0.505-  34 1.40  32 1.41  44 1.43
  44  0.728  0.613  0.506-  57 1.39  55 1.40  43 1.43
  45  0.835  0.501  0.499-  46 1.42  34 1.42  36 1.42
  46  0.891  0.612  0.499-  57 1.40  47 1.41  45 1.42
  47  0.001  0.668  0.498-  46 1.41  48 1.42  38 1.42
  48  0.057  0.779  0.498-  47 1.42  61 1.42  59 1.42
  49  0.166  0.667  0.499-  40 1.42  50 1.42  38 1.42
  50  0.222  0.779  0.498-  49 1.42  61 1.42  63 1.42
  51  0.331  0.667  0.502-  42 1.41  52 1.42  40 1.42
  52  0.388  0.778  0.500-  51 1.42  63 1.43  65 1.43
  53  0.495  0.663  0.509-  42 1.41  54 1.41  71 1.98
  54  0.553  0.773  0.503-  53 1.41  67 1.44  65 1.45
  55  0.669  0.662  0.511-  44 1.40  56 1.42  71 2.02
  56  0.720  0.773  0.504-  55 1.42  67 1.43  69 1.44
  57  0.837  0.667  0.501-  44 1.39  46 1.40  58 1.40
  58  0.890  0.777  0.499-  57 1.40  69 1.42  59 1.42
  59  0.001  0.833  0.498-  58 1.42  48 1.42  60 1.42
  60  0.056  0.945  0.498-   1 1.42  59 1.42   3 1.43
  61  0.167  0.835  0.498-  48 1.42  62 1.42  50 1.42
  62  0.223  0.946  0.498-  61 1.42   3 1.42   5 1.43
  63  0.333  0.834  0.498-  64 1.42  50 1.42  52 1.43
  64  0.389  0.946  0.498-  63 1.42   7 1.42   5 1.43
  65  0.499  0.832  0.500-  66 1.42  52 1.43  54 1.45
  66  0.555  0.943  0.498-  65 1.42   9 1.43   7 1.44
  67  0.665  0.829  0.502-  68 1.42  56 1.43  54 1.44
  68  0.721  0.941  0.499-  67 1.42  11 1.43   9 1.43
  69  0.832  0.830  0.500-  58 1.42  70 1.43  56 1.44
  70  0.888  0.942  0.498-  11 1.43   1 1.43  69 1.43
  71  0.525  0.556  0.555-  30 1.98  53 1.98  32 2.00  55 2.02

IMPORTANT INFORMATION: All symmetrisations will be switched off!
NOSYMM: (Re-)initialisation of all symmetry stuff for point group C_1.

 KPOINTS: K-Points

Automatic generation of k-mesh.
Space group operators:
 irot       det(A)        alpha          n_x          n_y          n_z        tau_x        tau_y        tau_z
    1     1.000000     0.000001     1.000000     0.000000     0.000000     0.000000     0.000000     0.000000

 Subroutine IBZKPT returns following result:

 Found      4 irreducible k-points:

 Following reciprocal coordinates:
            Coordinates               Weight
  0.000000  0.000000  0.000000      1.000000
  0.500000  0.000000  0.000000      1.000000
 -0.000000  0.500000  0.000000      1.000000
  0.500000  0.500000  0.000000      1.000000

 Following cartesian coordinates:
            Coordinates               Weight
  0.000000  0.000000  0.000000      1.000000
  0.033631  0.019607  0.000000      1.000000
 -0.000010  0.039213  0.000000      1.000000
  0.033622  0.058820  0.000000      1.000000

 SYSTEM =  unknown system
 POSCAR =  POSCAR-clean

 Startparameter for this run:
   NWRITE =      2    write-flag & timer
   PREC   = accura    normal or accurate (medium, high low for compatibility)
   ISTART =      0    job   : 0-new  1-cont  2-samecut
   ICHARG =      2    charge: 1-file 2-atom 10-const
   ISPIN  =      2    spin polarized calculation?
   LNONCOLLINEAR =      F non collinear calculations
   LSORBIT =      F    spin-orbit coupling
   INIWAV =      1    electr: 0-lowe 1-rand  2-diag
   LASPH  =      F    aspherical Exc in radial PAW
   METAGGA=      F    non-selfconsistent MetaGGA calc.

 Electronic Relaxation 1
   ENCUT  =  440.0 eV  32.34 Ry    5.69 a.u.  25.42 25.24 25.66*2*pi/ulx,y,z
   ENINI  =  440.0     initial cutoff
   ENAUG  =  644.9 eV  augmentation charge cutoff
   NELM   =     50;   NELMIN=  2; NELMDL= -5     # of ELM steps
   EDIFF  = 0.1E-04   stopping-criterion for ELM
   LREAL  =      T    real-space projection
   NLSPLINE    = F    spline interpolate recip. space projectors
   LCOMPAT=      F    compatible to vasp.4.4
   GGA_COMPAT  = T    GGA compatible to vasp.4.4-vasp.4.6
   LMAXPAW     = -100 max onsite density
   LMAXMIX     =    2 max onsite mixed and CHGCAR
   VOSKOWN=      0    Vosko Wilk Nusair interpolation
   ROPT   =   -0.00025  -0.00025  -0.00025  -0.00025
 Ionic relaxation
   EDIFFG = -.5E-01   stopping-criterion for IOM
   NSW    =    400    number of steps for IOM
   NBLOCK =      1;   KBLOCK =    400    inner block; outer block
   IBRION =      2    ionic relax: 0-MD 1-quasi-New 2-CG
   NFREE  =      1    steps in history (QN), initial steepest desc. (CG)
   ISIF   =      2    stress and relaxation
   IWAVPR =     11    prediction:  0-non 1-charg 2-wave 3-comb
   ISYM   =      0    0-nonsym 1-usesym 2-fastsym
   LCORR  =      T    Harris-Foulkes like correction to forces

   POTIM  = 0.3000    time-step for ionic-motion
   TEIN   =    0.0    initial temperature
   TEBEG  =    0.0;   TEEND  =   0.0 temperature during run
   SMASS  =  -3.00    Nose mass-parameter (am)
   estimated Nose-frequenzy (Omega)   =  0.10E-29 period in steps =****** mass=  -0.505E-26a.u.
   SCALEE = 1.0000    scale energy and forces
   NPACO  =    256;   APACO  = 16.0  distance and # of slots for P.C.
   PSTRESS=    0.0 pullay stress

  Mass of Ions in am
   POMASS =  12.01 14.00 12.01 52.00
  Ionic Valenz
   ZVAL   =   4.00  5.00  4.00 12.00
  Atomic Wigner-Seitz radii
  virtual crystal weights
   VCA    =   1.00  1.00  1.00  1.00
   NELECT =     293.0000    total number of electrons
   NUPDOWN=      -1.0000    fix difference up-down

 DOS related values:
   EMIN   =  10.00;   EMAX   =-10.00  energy-range for DOS
   EFERMI =   0.00
   ISMEAR =     0;   SIGMA  =   0.10  broadening in eV -4-tet -1-fermi 0-gaus

 Electronic relaxation 2 (details)
   IALGO  =     68    algorithm
   LDIAG  =      T    sub-space diagonalisation (order eigenvalues)
   LSUBROT=      F    optimize rotation matrix (better conditioning)
   TURBO    =      0    0=normal 1=particle mesh
   IRESTART =      0    0=no restart 2=restart with 2 vectors
   NREBOOT  =      0    no. of reboots
   NMIN     =      0    reboot dimension
[...]
      direct lattice vectors                 reciprocal lattice vectors
    14.864909407  0.003627638  0.000000000     0.067262956  0.039213486  0.000000000
    -7.432454703 12.748901734  0.000000000    -0.000019139  0.078426971  0.000000000
     0.000000000  0.000000000 15.000000000     0.000000000  0.000000000  0.066666667

  length of vectors
    14.864909849 14.757231392 15.000000000     0.077858864  0.078426973  0.066666667

 FORCES acting on ions
    electron-ion (+dipol)            ewald-force                    non-local-force                 convergence-correction
   0.188E+01 -.447E+01 0.797E+01   -.197E+01 0.471E+01 -.801E+01   0.101E+00 -.242E+00 0.289E-01   0.548E-04 -.498E-05 0.874E-04
   -.170E+01 -.516E+00 0.744E+01   0.177E+01 0.735E+00 -.747E+01   -.576E-01 -.228E+00 0.266E-01   0.336E-03 -.380E-05 0.132E-03
   0.557E+00 -.147E+01 0.721E+01   -.400E+00 0.177E+01 -.723E+01   -.162E+00 -.306E+00 0.253E-01   -.174E-03 -.429E-03 0.147E-03
   -.274E+01 -.197E+00 0.734E+01   0.285E+01 0.415E+00 -.735E+01   -.105E+00 -.221E+00 0.734E-02   -.478E-03 -.527E-03 0.160E-03
   -.114E+01 -.184E+00 0.685E+01   0.120E+01 0.355E+00 -.687E+01   -.610E-01 -.164E+00 0.238E-01   0.113E-03 -.225E-03 0.995E-04
   0.777E+00 0.547E+00 0.674E+01   -.857E+00 -.419E+00 -.674E+01   0.799E-01 -.116E+00 -.427E-02   0.445E-03 -.376E-03 0.124E-03
   -.199E+01 -.520E+00 0.753E+01   0.206E+01 0.480E+00 -.756E+01   -.640E-01 0.379E-01 0.258E-01   0.270E-03 -.197E-04 0.188E-03
   0.183E+01 0.669E+00 0.775E+01   -.193E+01 -.651E+00 -.778E+01   0.100E+00 -.301E-01 0.299E-01   0.458E-04 -.816E-04 0.172E-03
   -.873E+00 -.875E+00 0.732E+01   0.885E+00 0.830E+00 -.733E+01   -.186E-01 0.424E-01 0.100E-01   -.470E-03 0.372E-03 0.169E-03
   0.111E+01 -.155E+00 0.730E+01   -.106E+01 0.452E-01 -.733E+01   -.403E-01 0.104E+00 0.269E-01   -.196E-03 0.464E-03 0.145E-03
   0.171E+01 -.244E+01 0.668E+01   -.192E+01 0.250E+01 -.667E+01   0.209E+00 -.814E-01 -.184E-01   0.163E-03 0.519E-03 0.685E-04
   0.566E+00 -.820E+00 0.658E+01   -.610E+00 0.813E+00 -.661E+01   0.295E-01 -.113E-01 0.198E-01   -.256E-04 0.743E-04 0.728E-04
   0.216E+01 0.331E+01 0.717E+01   -.218E+01 -.328E+01 -.719E+01   0.272E-01 -.275E-01 0.192E-01   -.267E-03 -.295E-04 0.147E-03
   0.229E+01 0.318E+01 0.662E+01   -.219E+01 -.319E+01 -.664E+01   -.929E-01 0.850E-02 0.171E-01   -.955E-03 -.469E-04 0.167E-03
   0.159E+01 0.444E+01 0.826E+01   -.152E+01 -.426E+01 -.828E+01   -.836E-01 -.166E+00 0.210E-01   -.613E-03 -.604E-03 0.226E-03
   -.166E+01 0.698E+01 0.102E+02   0.211E+01 -.672E+01 -.103E+02   -.466E+00 -.240E+00 0.134E+00   -.190E-03 -.211E-03 0.396E-03
   0.459E+00 0.529E+01 0.748E+01   -.440E+00 -.488E+01 -.750E+01   -.235E-01 -.433E+00 0.234E-01   0.340E-03 -.878E-03 0.261E-03
   -.196E+01 0.850E+01 0.716E+01   0.195E+01 -.787E+01 -.677E+01   0.367E-02 -.624E+00 -.391E+00   0.961E-04 -.132E-02 0.691E-03
   -.157E+01 0.493E+01 0.816E+01   0.149E+01 -.486E+01 -.818E+01   0.984E-01 -.720E-01 0.166E-01   0.228E-03 -.713E-03 0.197E-03
   0.335E+01 0.904E+01 0.990E+01   -.398E+01 -.888E+01 -.100E+02   0.636E+00 -.151E+00 0.106E+00   0.510E-03 -.250E-03 0.392E-03
   -.187E+01 0.536E+01 0.764E+01   0.191E+01 -.549E+01 -.765E+01   -.436E-01 0.150E+00 0.134E-01   0.321E-03 0.117E-03 0.184E-03
   -.225E+01 0.519E+01 0.760E+01   0.225E+01 -.536E+01 -.763E+01   -.500E-02 0.186E+00 0.260E-01   0.689E-03 -.166E-05 0.135E-03
   -.547E+00 0.188E+01 0.611E+01   0.522E+00 -.195E+01 -.610E+01   0.272E-01 0.604E-01 -.148E-01   -.135E-03 -.207E-03 0.893E-04
   0.610E-01 0.368E+01 0.628E+01   -.324E-02 -.378E+01 -.631E+01   -.640E-01 0.974E-01 0.247E-01   -.395E-04 0.169E-03 0.781E-04
   0.560E+00 0.445E+01 0.574E+01   -.471E+00 -.453E+01 -.572E+01   -.817E-01 0.823E-01 -.193E-01   0.221E-03 -.572E-03 0.129E-03
   0.230E+01 0.453E+01 0.626E+01   -.211E+01 -.464E+01 -.631E+01   -.196E+00 0.984E-01 0.458E-01   -.378E-03 -.208E-04 0.182E-03
   0.398E+01 0.989E+01 0.634E+01   -.377E+01 -.992E+01 -.631E+01   -.222E+00 0.350E-01 -.263E-01   -.295E-03 -.469E-03 0.339E-03
   0.118E+02 0.721E+01 0.427E+01   -.116E+02 -.714E+01 -.435E+01   -.209E+00 -.711E-01 0.866E-01   -.871E-03 -.408E-03 0.521E-03
   -.634E-01 0.197E+02 0.138E+02   0.351E+00 -.189E+02 -.140E+02   -.299E+00 -.842E+00 0.222E+00   -.211E-02 -.322E-03 0.560E-03
   -.526E+01 0.381E+02 0.284E+02   0.115E+02 -.347E+02 -.275E+02   -.623E+01 -.337E+01 -.950E+00   -.324E-02 -.249E-02 0.439E-03
   0.211E+01 0.184E+02 0.113E+02   -.250E+01 -.174E+02 -.115E+02   0.393E+00 -.997E+00 0.211E+00   0.182E-02 -.637E-03 0.677E-03
   0.823E+01 0.367E+02 0.201E+02   -.150E+02 -.331E+02 -.188E+02   0.677E+01 -.356E+01 -.120E+01   0.354E-02 -.180E-02 0.582E-03
   -.369E+01 0.134E+02 0.803E+01   0.346E+01 -.139E+02 -.798E+01   0.239E+00 0.493E+00 -.563E-01   0.660E-03 -.352E-03 0.224E-03
   -.117E+02 0.164E+02 0.963E+01   0.113E+02 -.170E+02 -.976E+01   0.414E+00 0.584E+00 0.121E+00   0.125E-02 -.935E-03 0.348E-03
   -.251E+01 0.504E+01 0.639E+01   0.253E+01 -.527E+01 -.637E+01   -.244E-01 0.246E+00 -.151E-01   -.464E-03 -.466E-03 0.101E-03
   -.399E+01 0.767E+01 0.693E+01   0.447E+01 -.805E+01 -.697E+01   -.482E+00 0.381E+00 0.273E-01   -.202E-03 0.297E-03 0.104E-03
   -.379E+01 0.242E+01 0.635E+01   0.402E+01 -.256E+01 -.637E+01   -.232E+00 0.147E+00 0.179E-01   -.146E-03 -.400E-03 0.115E-03
   -.386E+01 -.495E+00 0.605E+01   0.441E+01 0.190E+00 -.607E+01   -.552E+00 0.283E+00 0.101E-01   -.382E-04 0.149E-03 0.105E-03
   0.472E+01 0.151E+01 0.396E+01   -.456E+01 -.151E+01 -.391E+01   -.132E+00 0.483E-02 -.472E-01   -.479E-03 -.989E-03 0.330E-03
   0.496E+01 -.123E+01 0.417E+01   -.477E+01 0.118E+01 -.413E+01   -.183E+00 0.275E-01 -.372E-01   -.111E-02 0.700E-03 0.321E-03
   0.267E+02 0.104E+02 0.140E+02   -.260E+02 -.109E+02 -.147E+02   -.690E+00 0.516E+00 0.719E+00   -.689E-03 -.319E-02 0.881E-03
   0.268E+02 -.986E+01 0.146E+02   -.261E+02 0.103E+02 -.153E+02   -.669E+00 -.504E+00 0.652E+00   -.245E-03 0.272E-02 0.885E-03
   -.155E+02 0.168E+02 0.132E+02   0.141E+02 -.186E+02 -.136E+02   0.146E+01 0.181E+01 0.406E+00   0.858E-04 -.303E-02 0.951E-03
   0.145E+01 0.634E+01 0.843E+01   -.796E+01 -.892E+01 -.824E+01   0.653E+01 0.254E+01 -.161E+00   0.154E-03 0.242E-02 0.101E-02
   -.120E+02 0.105E+02 0.716E+01   0.122E+02 -.119E+02 -.717E+01   -.196E+00 0.135E+01 -.134E-02   0.101E-02 -.933E-03 0.127E-03
   -.289E+02 0.124E+02 0.743E+01   0.342E+02 -.155E+02 -.749E+01   -.530E+01 0.310E+01 0.566E-01   0.877E-03 0.496E-03 0.171E-03
   -.139E+02 -.235E+01 0.647E+01   0.152E+02 0.281E+01 -.649E+01   -.126E+01 -.437E+00 0.196E-01   0.143E-04 -.354E-03 0.124E-03
   -.849E+01 -.841E+01 0.577E+01   0.916E+01 0.886E+01 -.577E+01   -.662E+00 -.438E+00 -.196E-02   -.105E-03 0.642E-03 0.912E-04
   0.129E+01 -.302E+01 0.598E+01   -.103E+01 0.307E+01 -.601E+01   -.269E+00 -.368E-01 0.361E-01   -.156E-03 -.370E-03 0.182E-03
   -.922E+00 -.470E+01 0.580E+01   0.114E+01 0.474E+01 -.578E+01   -.224E+00 -.425E-01 -.175E-01   0.601E-04 0.594E-03 0.149E-03
   0.119E+02 -.670E+01 0.522E+01   -.117E+02 0.662E+01 -.530E+01   -.217E+00 0.941E-01 0.856E-01   -.924E-03 0.389E-03 0.509E-03
   0.384E+01 -.108E+02 0.670E+01   -.361E+01 0.108E+02 -.668E+01   -.231E+00 -.278E-02 -.261E-01   -.365E-03 0.116E-02 0.301E-03
   -.505E+01 -.368E+02 0.299E+02   0.113E+02 0.333E+02 -.291E+02   -.623E+01 0.348E+01 -.815E+00   -.305E-02 0.197E-02 0.424E-03
   0.551E+00 -.206E+02 0.131E+02   -.357E+00 0.197E+02 -.133E+02   -.194E+00 0.915E+00 0.213E+00   -.200E-02 0.526E-03 0.488E-03
   0.185E+02 -.311E+02 0.114E+02   -.266E+02 0.271E+02 -.100E+02   0.805E+01 0.402E+01 -.136E+01   0.309E-02 0.157E-02 0.701E-03
   0.850E+01 -.208E+02 0.111E+02   -.957E+01 0.199E+02 -.112E+02   0.106E+01 0.894E+00 0.131E+00   0.143E-02 0.796E-03 0.818E-03
   -.143E+02 -.923E+01 0.133E+02   0.139E+02 0.893E+01 -.139E+02   0.388E+00 0.306E+00 0.588E+00   0.221E-02 0.820E-03 0.493E-03
   -.321E+01 -.370E+02 0.939E+01   0.286E+01 0.432E+02 -.941E+01   0.363E+00 -.626E+01 0.147E-01   0.679E-03 0.581E-03 0.299E-03
   -.586E+01 -.136E+02 0.703E+01   0.683E+01 0.145E+02 -.705E+01   -.970E+00 -.964E+00 0.123E-01   0.674E-03 0.353E-03 0.107E-03
   -.427E+01 -.736E+01 0.732E+01   0.431E+01 0.804E+01 -.733E+01   -.506E-01 -.696E+00 0.511E-02   0.209E-03 -.116E-03 0.115E-03
   -.334E+01 -.478E+01 0.628E+01   0.374E+01 0.506E+01 -.632E+01   -.380E+00 -.262E+00 0.318E-01   -.121E-03 0.259E-03 0.122E-03
   -.188E+01 -.373E+01 0.630E+01   0.197E+01 0.393E+01 -.629E+01   -.834E-01 -.211E+00 -.119E-01   0.114E-03 -.117E-03 0.124E-03
   0.121E+01 -.366E+01 0.674E+01   -.103E+01 0.373E+01 -.676E+01   -.157E+00 -.607E-01 0.202E-01   -.551E-03 0.369E-03 0.173E-03
   0.117E+01 -.480E+01 0.713E+01   -.113E+01 0.486E+01 -.714E+01   -.243E-01 -.562E-01 0.982E-02   -.159E-03 0.202E-03 0.148E-03
   -.116E+01 -.749E+01 0.992E+01   0.158E+01 0.727E+01 -.101E+02   -.429E+00 0.220E+00 0.124E+00   -.444E-03 0.551E-03 0.331E-03
   0.214E+01 -.599E+01 0.818E+01   -.211E+01 0.589E+01 -.819E+01   -.388E-01 0.112E+00 0.168E-01   -.513E-03 0.831E-03 0.237E-03
   0.242E+01 -.944E+01 0.673E+01   -.276E+01 0.895E+01 -.635E+01   0.314E+00 0.511E+00 -.365E+00   0.114E-03 0.158E-02 0.744E-03
   0.177E+01 -.678E+01 0.758E+01   -.186E+01 0.648E+01 -.762E+01   0.878E-01 0.319E+00 0.371E-01   0.309E-04 0.108E-02 0.259E-03
   0.703E+01 -.172E+02 0.127E+02   -.867E+01 0.179E+02 -.129E+02   0.164E+01 -.600E+00 0.169E+00   0.655E-03 0.719E-03 0.486E-03
   0.106E+01 -.714E+01 0.916E+01   -.117E+01 0.763E+01 -.917E+01   0.122E+00 -.487E+00 -.106E-02   0.404E-03 0.618E-03 0.145E-03
   -.134E+00 0.120E+01 -.628E+03   0.198E+01 -.144E+01 0.610E+03   -.190E+01 0.224E+00 0.180E+02   0.275E-03 0.153E-02 0.206E-01
   0.115E+01 -.492E+00 -.172E+02   -.130E-12 -.213E-12 -.227E-12   -.115E+01 0.491E+00 0.171E+02   0.993E-03 0.174E-02 0.418E-01

 POSITION                                       TOTAL-FORCE (eV/Angst)
      7.43369     12.74379      7.46412         0.006717      0.003330     -0.004397
      0.00110      1.41657      7.46617         0.010298     -0.010496     -0.001382
      2.48002      0.02082      7.46354        -0.003927     -0.008873      0.002658
      2.48118      1.44314      7.47424        -0.001535     -0.001981     -0.003466
      4.95266      0.02624      7.46518         0.001659      0.008510     -0.002120
      4.95454      1.44755      7.47581         0.000109      0.013507     -0.005074
      0.00118     12.74990      7.46626         0.005532     -0.001756      0.002371
      7.43310      1.42567      7.46504         0.006940     -0.014298      0.001041
      2.48509     12.72283      7.47440        -0.007333     -0.003906     -0.003304
      9.91681      1.39576      7.46320         0.004155     -0.006398      0.001027
      4.95916     12.71923      7.47551        -0.001120     -0.019150     -0.009295
     12.38840      1.39340      7.46558        -0.015251     -0.019863     -0.003916
     13.62302      2.11287      7.46632         0.004122     -0.004327      0.002215
     -1.24686      3.52849      7.47690         0.005727     -0.004963     -0.002658
      1.23823      2.13949      7.47649        -0.006246      0.015658      0.001155
      1.23659      3.56244      7.50073        -0.007502      0.018749      0.002122
      3.71926      2.17123      7.49014        -0.003890     -0.013007     -0.002523
      3.72121      3.59427      7.53474        -0.002427      0.010783      0.005279
      6.19555      2.15006      7.47635         0.009188      0.002067     -0.002703
      6.19690      3.57604      7.50010         0.007457      0.008976      0.000055
      8.67987      2.11476      7.46320        -0.004163      0.014602      0.004416
      8.68366      3.53326      7.47081        -0.003614      0.014673     -0.004049
     11.15132      2.10609      7.46361         0.001363     -0.007902     -0.001450
     11.14957      3.53019      7.46530        -0.006046     -0.005987     -0.002119
     12.38157      4.24149      7.47315         0.006322      0.000563     -0.000442
     -2.48984      5.65971      7.47992        -0.004705     -0.015020      0.000030
     -0.01507      4.24370      7.50211        -0.007249     -0.000973     -0.001085
     -0.04054      5.66114      7.53029         0.017409     -0.014226      0.009783
      2.47526      4.30390      7.54738        -0.000773     -0.007801     -0.009229
      2.43042      5.71384      7.63944        -0.000603     -0.019094     -0.006852
      4.96249      4.32716      7.55392        -0.011319     -0.016659      0.003833
      5.01140      5.74772      7.65387        -0.011550     -0.010347      0.026284
      7.45188      4.24958      7.49337         0.007038     -0.015084     -0.008231
      7.47752      5.66524      7.51294        -0.004333     -0.032538     -0.003481
      9.91699      4.24514      7.46880        -0.000888      0.013913     -0.001749
      9.92299      5.67025      7.47427        -0.002028     -0.002064     -0.005342
     11.14797      6.37818      7.47385         0.003998      0.000838     -0.000866
     -3.72296      7.79400      7.47478         0.001936     -0.019806     -0.002349
     -1.26858      6.37416      7.50545         0.025891      0.001317      0.003953
     -1.27067      7.79428      7.50479        -0.002668     -0.016928      0.004331
      1.18088      6.36760      7.58022        -0.016145      0.013215     -0.001686
      1.17929      7.80063      7.57829        -0.010148     -0.020546     -0.003023
      6.27199      6.37899      7.57662         0.013519      0.012142      0.014591
      6.27488      7.81300      7.58514         0.026750     -0.033349      0.019952
      8.69663      6.38760      7.49131        -0.014574      0.002801     -0.010431
      8.69488      7.80356      7.49155         0.008261     -0.016397     -0.006182
     -4.95048      8.51217      7.47613         0.011359      0.018932     -0.003256
     -4.94376      9.92998      7.47097         0.011042      0.010314     -0.003638
     -2.49421      8.50851      7.48057        -0.008156      0.010014     -0.000621
     -2.48349      9.92902      7.47322        -0.005231      0.001811      0.000331
     -0.04208      8.50654      7.52768         0.005606      0.016806      0.007088
     -0.01502      9.92248      7.50099        -0.005026      0.022629     -0.002888
      2.42889      8.45343      7.63578         0.017010     -0.000806     -0.007306
      2.47669      9.86121      7.54905         0.010874      0.013666     -0.013454
      5.02709      8.44138      7.66871        -0.032285      0.020761      0.030228
      4.96256      9.85346      7.55575        -0.023095      0.032458      0.011507
      7.47912      8.50586      7.51144        -0.002874      0.009788      0.004728
      7.45336      9.90998      7.49108         0.012359      0.002705     -0.001198
     -6.18441     10.62408      7.47258        -0.004249      0.001909     -0.006285
     -6.19101     12.04736      7.46407        -0.014000     -0.014588     -0.000756
     -3.71593     10.64159      7.46582         0.019528      0.017888      0.001845
     -3.71583     12.06418      7.46344         0.003589     -0.007994      0.000548
     -1.24776     10.63795      7.47649         0.019616      0.009674     -0.001499
     -1.24322     12.05681      7.46641         0.016044      0.005242      0.000061
      1.23765     10.60340      7.50147        -0.013171     -0.000637     -0.003515
      1.24000     12.02587      7.47694        -0.009084      0.012021      0.000611
      3.72410     10.57506      7.53639        -0.021325      0.010374      0.010742
      3.72228     11.99828      7.49014        -0.005126      0.013771     -0.004307
      6.20303     10.58599      7.49426         0.001837      0.018832      0.009191
      6.20308     12.01625      7.47321         0.014577     -0.000452     -0.008675
      3.67993      7.08385      8.32210        -0.024170     -0.017023     -0.015173
    total drift:                               -0.000994      0.001194     -0.005220

  FREE ENERGIE OF THE ION-ELECTRON SYSTEM (eV)
  free  energy   TOTEN  =      -653.76222117 eV

  energy  without entropy=     -653.72105124  energy(sigma->0) =     -653.74163620

 d Force = 0.6365632E-05[ 0.102E-05, 0.117E-04]  d Energy = 0.1125079E-03-0.106E-03
 d Force = 0.1055748E+00[ 0.106E+00, 0.106E+00]  d Ewald  = 0.1055748E+00-0.291E-09

 stress matrix after NEB project (eV)
     -1.93539      0.00323     -0.02818
      0.00323     -1.95288     -0.01572
     -0.02818     -0.01572     -3.50993
  FORCES: max atom, RMS     0.048857    0.019458
  FORCE total and by dimension    0.163955    0.033349
  Stress total and by dimension    4.458834    3.509931

 reached required accuracy - stopping structural energy minimisation