 vasp.5.4.4.18Apr17-6-g9f103f2a35 (build Sep 02 2021 13:24:58) complex

 executed on             LinuxIFC date 2023.01.15  13:02:11

 INCAR:
 POTCAR:    PAW_PBE C 08Apr2002
 POTCAR:    PAW_PBE N 08Apr2002
 POTCAR:    PAW_PBE C 08Apr2002
 POTCAR:    PAW_PBE Cr_pv 02Aug2007
 POTCAR:    PAW_PBE C 08Apr2002
   VRHFIN =C: s2p2

   TITEL  = PAW_PBE C 08Apr2002
   POMASS =   12.011; ZVAL   =    4.000    mass and valenz
   ENMAX  =  400.000; ENMIN  =  300.000 eV

[...]

   TITEL  = PAW_PBE C 08Apr2002
   POMASS =   12.011; ZVAL   =    4.000    mass and valenz
   ENMAX  =  400.000; ENMIN  =  300.000 eV

   TITEL  = PAW_PBE Cr_pv 02Aug2007
   POMASS =   51.996; ZVAL   =   12.000    mass and valenz
   ENMAX  =  265.681; ENMIN  =  199.261 eV

 Optimization of the real space projectors (new method)

 maximal supplied QI-value         = 25.13
 optimisation between [QCUT,QGAM] = [ 11.81, 23.88] = [ 39.08,159.64] Ry
 Optimized for a Real-space Cutoff    1.18 Angstroem

   l    n(q)    QCUT    max X(q) W(low)/X(q) W(high)/X(q)  e(spline)
   0      8    11.813   115.676    0.10E-03    0.16E-03    0.35E-06
   0      8    11.813    87.132    0.10E-03    0.16E-03    0.35E-06
   1      8    11.813     4.429    0.16E-03    0.13E-04    0.22E-06
   1      8    11.813     2.733    0.13E-03    0.10E-04    0.18E-06
 Optimization of the real space projectors (new method)

[...]

   l    n(q)    QCUT    max X(q) W(low)/X(q) W(high)/X(q)  e(spline)
   0      8    11.813   115.676    0.10E-03    0.16E-03    0.35E-06
   0      8    11.813    87.132    0.10E-03    0.16E-03    0.35E-06
   1      8    11.813     4.429    0.16E-03    0.13E-04    0.22E-06
   1      8    11.813     2.733    0.13E-03    0.10E-04    0.18E-06
 Optimization of the real space projectors (new method)

 maximal supplied QI-value         = 16.25
 optimisation between [QCUT,QGAM] = [ 11.86, 23.89] = [ 39.41,159.82] Ry
 Optimized for a Real-space Cutoff    1.33 Angstroem

   l    n(q)    QCUT    max X(q) W(low)/X(q) W(high)/X(q)  e(spline)
   1      9    11.864     3.262    0.48E-04    0.16E-03    0.14E-06
   1      9    11.864     5.741    0.74E-04    0.40E-03    0.35E-06
   2      9    11.864    60.438    0.17E-03    0.21E-03    0.26E-06
   2      9    11.864    55.380    0.17E-03    0.21E-03    0.27E-06
   0      9    11.864    80.273    0.40E-04    0.47E-04    0.12E-06
   0      9    11.864    36.654    0.35E-04    0.41E-04    0.11E-06
  PAW_PBE C 08Apr2002                   :
  PAW_PBE N 08Apr2002                   :
  PAW_PBE C 08Apr2002                   :
  PAW_PBE Cr_pv 02Aug2007               :

 POSCAR: POSCAR-clean
  positions in cartesian coordinates
 exchange correlation table for  LEXCH =        8
   RHO(1)=    0.500       N(1)  =     2000
   RHO(2)=  100.500       N(2)  =     4000

 ion  position               nearest neighbor table
   1  0.000  1.000  0.498-   2 1.42  60 1.42  70 1.43
   2  0.056  0.111  0.498-   1 1.42  13 1.42  15 1.43
   3  0.168  0.002  0.498-   4 1.42  62 1.43  60 1.43
   4  0.224  0.113  0.498-   3 1.42  15 1.42  17 1.44
   5  0.334  0.002  0.498-   6 1.42  62 1.43  64 1.43
   6  0.390  0.113  0.498-   5 1.42  19 1.42  17 1.44
   7  0.500  1.000  0.498-   8 1.42  64 1.42  66 1.43
   8  0.556  0.111  0.498-   7 1.42  21 1.42  19 1.43
   9  0.666  0.998  0.498-  10 1.42  66 1.42  68 1.44
  10  0.722  0.109  0.498-   9 1.42  23 1.43  21 1.43
  11  0.832  0.998  0.498-  12 1.42  70 1.42  68 1.44
  12  0.888  0.109  0.498-  11 1.42  23 1.43  13 1.43
  13  0.999  0.165  0.498-  14 1.42   2 1.42  12 1.43
  14  0.054  0.277  0.499-  13 1.42  25 1.42  27 1.43
  15  0.167  0.168  0.498-  16 1.42   4 1.42   2 1.43
  16  0.223  0.280  0.500-  15 1.42  27 1.43  29 1.44
  17  0.335  0.170  0.499-  18 1.42   4 1.44   6 1.44
  18  0.391  0.281  0.503-  17 1.42  31 1.44  29 1.44
  19  0.501  0.168  0.498-  20 1.42   6 1.42   8 1.43
  20  0.557  0.280  0.500-  19 1.42  33 1.43  31 1.44
  21  0.667  0.165  0.498-  22 1.42   8 1.42  10 1.43
  22  0.723  0.277  0.498-  21 1.42  35 1.42  33 1.43
  23  0.833  0.165  0.498-  24 1.42  10 1.43  12 1.43
  24  0.888  0.276  0.498-  23 1.42  25 1.42  35 1.43
  25  0.999  0.332  0.498-  14 1.42  26 1.42  24 1.42
  26  0.054  0.444  0.499-  39 1.42  37 1.42  25 1.42
  27  0.165  0.333  0.500-  28 1.42  16 1.43  14 1.43
  28  0.219  0.444  0.502-  41 1.41  27 1.42  39 1.42
  29  0.335  0.338  0.503-  30 1.41  18 1.44  16 1.44
  30  0.387  0.448  0.510-  41 1.41  29 1.41  71 2.00
  31  0.503  0.338  0.504-  32 1.41  18 1.44  20 1.44
  32  0.562  0.448  0.510-  43 1.41  31 1.41  71 2.00
  33  0.668  0.333  0.500-  34 1.42  20 1.43  22 1.43
  34  0.725  0.444  0.501-  43 1.41  33 1.42  45 1.42
  35  0.833  0.332  0.498-  22 1.42  36 1.42  24 1.43
  36  0.890  0.444  0.498-  45 1.42  37 1.42  35 1.42
  37  0.000  0.500  0.498-  36 1.42  26 1.42  38 1.42
  38  0.056  0.611  0.498-  47 1.42  49 1.42  37 1.42
  39  0.165  0.500  0.500-  26 1.42  28 1.42  40 1.42
  40  0.220  0.611  0.500-  49 1.42  51 1.42  39 1.42
  41  0.329  0.499  0.505-  30 1.41  28 1.41  42 1.44
  42  0.385  0.612  0.505-  53 1.41  51 1.41  41 1.44
  43  0.671  0.499  0.505-  32 1.41  34 1.41  44 1.44
  44  0.727  0.612  0.505-  55 1.41  57 1.41  43 1.44
  45  0.836  0.500  0.499-  36 1.42  34 1.42  46 1.42
  46  0.891  0.611  0.499-  47 1.42  57 1.42  45 1.42
  47  0.001  0.667  0.498-  46 1.42  38 1.42  48 1.42
  48  0.057  0.779  0.498-  59 1.42  47 1.42  61 1.43
  49  0.166  0.667  0.499-  40 1.42  38 1.42  50 1.42
  50  0.222  0.779  0.498-  63 1.42  49 1.42  61 1.42
  51  0.331  0.667  0.502-  42 1.41  52 1.42  40 1.42
  52  0.388  0.778  0.500-  51 1.42  65 1.43  63 1.43
  53  0.494  0.663  0.510-  42 1.41  54 1.41  71 2.00
  54  0.553  0.773  0.503-  53 1.41  67 1.44  65 1.44
  55  0.669  0.663  0.510-  44 1.41  56 1.41  71 2.00
  56  0.721  0.773  0.504-  55 1.41  67 1.44  69 1.44
  57  0.837  0.667  0.501-  44 1.41  58 1.42  46 1.42
  58  0.891  0.778  0.500-  57 1.42  69 1.42  59 1.43
  59  0.002  0.835  0.498-  60 1.42  48 1.42  58 1.43
  60  0.057  0.946  0.498-  59 1.42   1 1.42   3 1.43
  61  0.168  0.835  0.498-  62 1.42  50 1.42  48 1.43
  62  0.223  0.946  0.498-  61 1.42   3 1.43   5 1.43
  63  0.333  0.835  0.499-  64 1.42  50 1.42  52 1.43
  64  0.389  0.946  0.498-  63 1.42   7 1.42   5 1.43
  65  0.499  0.832  0.500-  66 1.42  52 1.43  54 1.44
  66  0.555  0.943  0.498-  65 1.42   9 1.42   7 1.43
  67  0.665  0.830  0.503-  68 1.42  56 1.44  54 1.44
  68  0.721  0.941  0.499-  67 1.42   9 1.44  11 1.44
  69  0.833  0.832  0.500-  70 1.42  58 1.42  56 1.44
  70  0.889  0.943  0.498-  69 1.42  11 1.42   1 1.43
  71  0.528  0.556  0.554-  55 2.00  32 2.00  53 2.00  30 2.00

IMPORTANT INFORMATION: All symmetrisations will be switched off!
NOSYMM: (Re-)initialisation of all symmetry stuff for point group C_1.

 KPOINTS: K-Points

Automatic generation of k-mesh.
Space group operators:
 irot       det(A)        alpha          n_x          n_y          n_z        tau_x        tau_y        tau_z
    1     1.000000     0.000000     1.000000     0.000000     0.000000     0.000000     0.000000     0.000000

 Subroutine IBZKPT returns following result:

 Found      4 irreducible k-points:

 Following reciprocal coordinates:
            Coordinates               Weight
  0.000000  0.000000  0.000000      1.000000
  0.500000  0.000000  0.000000      1.000000
 -0.000000  0.500000  0.000000      1.000000
  0.500000  0.500000  0.000000      1.000000

 Following cartesian coordinates:
            Coordinates               Weight
  0.000000  0.000000  0.000000      1.000000
  0.033606  0.019589  0.000000      1.000000
 -0.000000  0.039178  0.000000      1.000000
  0.033606  0.058767  0.000000      1.000000

 SYSTEM =  unknown system
 POSCAR =  POSCAR-clean

 Startparameter for this run:
   NWRITE =      2    write-flag & timer
   PREC   = accura    normal or accurate (medium, high low for compatibility)
   ISTART =      0    job   : 0-new  1-cont  2-samecut
   ICHARG =      2    charge: 1-file 2-atom 10-const
   ISPIN  =      2    spin polarized calculation?
   LNONCOLLINEAR =      F non collinear calculations
   LSORBIT =      F    spin-orbit coupling
   INIWAV =      1    electr: 0-lowe 1-rand  2-diag
   LASPH  =      F    aspherical Exc in radial PAW
   METAGGA=      F    non-selfconsistent MetaGGA calc.

 Electronic Relaxation 1
   ENCUT  =  550.0 eV  40.42 Ry    6.36 a.u.  28.45 28.25 28.68*2*pi/ulx,y,z
   ENINI  =  550.0     initial cutoff
   ENAUG  =  644.9 eV  augmentation charge cutoff
   NELM   =     50;   NELMIN=  2; NELMDL= -5     # of ELM steps
   EDIFF  = 0.1E-04   stopping-criterion for ELM
   LREAL  =      T    real-space projection
   NLSPLINE    = F    spline interpolate recip. space projectors
   LCOMPAT=      F    compatible to vasp.4.4
   GGA_COMPAT  = T    GGA compatible to vasp.4.4-vasp.4.6
   LMAXPAW     = -100 max onsite density
   LMAXMIX     =    2 max onsite mixed and CHGCAR
   VOSKOWN=      0    Vosko Wilk Nusair interpolation
   ROPT   =   -0.00025  -0.00025  -0.00025  -0.00025
 Ionic relaxation
   EDIFFG = -.5E-01   stopping-criterion for IOM
   NSW    =    400    number of steps for IOM
   NBLOCK =      1;   KBLOCK =    400    inner block; outer block
   IBRION =      2    ionic relax: 0-MD 1-quasi-New 2-CG
   NFREE  =      1    steps in history (QN), initial steepest desc. (CG)
   ISIF   =      3    stress and relaxation
   IWAVPR =     11    prediction:  0-non 1-charg 2-wave 3-comb
   ISYM   =      0    0-nonsym 1-usesym 2-fastsym
   LCORR  =      T    Harris-Foulkes like correction to forces

   POTIM  = 0.3000    time-step for ionic-motion
   TEIN   =    0.0    initial temperature
   TEBEG  =    0.0;   TEEND  =   0.0 temperature during run
   SMASS  =  -3.00    Nose mass-parameter (am)
   estimated Nose-frequenzy (Omega)   =  0.10E-29 period in steps =****** mass=  -0.506E-26a.u.
   SCALEE = 1.0000    scale energy and forces
   NPACO  =    256;   APACO  = 16.0  distance and # of slots for P.C.
   PSTRESS=    0.0 pullay stress

  Mass of Ions in am
   POMASS =  12.01 14.00 12.01 52.00
  Ionic Valenz
   ZVAL   =   4.00  5.00  4.00 12.00
  Atomic Wigner-Seitz radii
  virtual crystal weights
   VCA    =   1.00  1.00  1.00  1.00
   NELECT =     293.0000    total number of electrons
   NUPDOWN=      -1.0000    fix difference up-down

 DOS related values:
   EMIN   =  10.00;   EMAX   =-10.00  energy-range for DOS
   EFERMI =   0.00
   ISMEAR =     0;   SIGMA  =   0.10  broadening in eV -4-tet -1-fermi 0-gaus

 Electronic relaxation 2 (details)
   IALGO  =     68    algorithm
   LDIAG  =      T    sub-space diagonalisation (order eigenvalues)
   LSUBROT=      F    optimize rotation matrix (better conditioning)
   TURBO    =      0    0=normal 1=particle mesh
   IRESTART =      0    0=no restart 2=restart with 2 vectors
   NREBOOT  =      0    no. of reboots
   NMIN     =      0    reboot dimension
   EREF     =   0.00    reference energy to select bands
   IMIX   =      4    mixing-type and parameters
     AMIX     =   0.40;   BMIX     =  1.00
     AMIX_MAG =   1.60;   BMIX_MAG =  1.00
     AMIN     =   0.10
     WC   =   100.;   INIMIX=   1;  MIXPRE=   1;  MAXMIX= -45

 Intra band minimization:
[...]
    -7.430268409 12.756349395  0.000000000    -0.000000062  0.078392297  0.000000000
     0.000000000  0.000000000 15.000000000     0.000000000  0.000000000  0.066666667

  length of vectors
    14.860536817 14.762565445 15.000000000     0.077875479  0.078392297  0.066666667

 FORCES acting on ions
    electron-ion (+dipol)            ewald-force                    non-local-force                 convergence-correction
   0.104E+01 -.679E+00 0.796E+01   -.112E+01 0.641E+00 -.799E+01   0.819E-01 0.491E-01 0.311E-01   -.819E-03 -.575E-03 -.314E-03
   -.180E+01 0.128E+01 0.768E+01   0.197E+01 -.132E+01 -.772E+01   -.157E+00 0.156E-01 0.306E-01   -.190E-02 0.377E-02 -.336E-03
   0.555E+00 -.724E+00 0.733E+01   -.586E+00 0.902E+00 -.736E+01   0.160E-01 -.177E+00 0.254E-01   0.572E-03 -.364E-02 -.349E-03
   -.158E+01 0.591E+00 0.754E+01   0.166E+01 -.471E+00 -.755E+01   -.930E-01 -.135E+00 0.940E-02   -.731E-03 0.984E-03 -.332E-03
   -.555E+00 -.710E+00 0.655E+01   0.586E+00 0.887E+00 -.658E+01   -.167E-01 -.176E+00 0.197E-01   -.497E-03 -.368E-02 -.564E-03
   0.159E+01 0.593E+00 0.691E+01   -.167E+01 -.472E+00 -.691E+01   0.925E-01 -.135E+00 0.387E-02   0.688E-03 0.885E-03 -.540E-03
   -.104E+01 -.673E+00 0.770E+01   0.112E+01 0.636E+00 -.772E+01   -.824E-01 0.509E-01 0.275E-01   0.858E-03 -.771E-03 -.338E-03
   0.180E+01 0.129E+01 0.786E+01   -.197E+01 -.132E+01 -.789E+01   0.156E+00 0.174E-01 0.330E-01   0.194E-02 0.355E-02 -.333E-03
   -.176E+01 0.395E+00 0.752E+01   0.178E+01 -.595E+00 -.753E+01   -.181E-01 0.219E+00 0.856E-02   0.434E-03 0.181E-02 -.285E-03
   0.666E+00 0.193E+01 0.733E+01   -.779E+00 -.221E+01 -.736E+01   0.106E+00 0.276E+00 0.256E-01   0.133E-02 0.413E-02 -.315E-03
   0.177E+01 0.395E+00 0.690E+01   -.179E+01 -.594E+00 -.690E+01   0.172E-01 0.218E+00 0.348E-02   -.548E-03 0.194E-02 -.474E-03
   -.668E+00 0.192E+01 0.652E+01   0.781E+00 -.219E+01 -.654E+01   -.106E+00 0.276E+00 0.200E-01   -.132E-02 0.420E-02 -.526E-03
   0.148E+00 0.529E+01 0.682E+01   -.604E-01 -.555E+01 -.683E+01   -.100E+00 0.252E+00 0.661E-02   -.446E-03 0.495E-02 -.497E-03
   0.602E+00 0.654E+01 0.638E+01   0.319E-01 -.694E+01 -.640E+01   -.620E+00 0.385E+00 0.155E-01   -.528E-03 0.423E-02 -.485E-03
   0.792E+00 0.542E+01 0.872E+01   -.696E+00 -.536E+01 -.873E+01   -.105E+00 -.874E-01 0.159E-01   -.453E-02 0.407E-02 -.245E-03
   -.306E+01 0.736E+01 0.102E+02   0.373E+01 -.721E+01 -.103E+02   -.663E+00 -.148E+00 0.109E+00   -.618E-02 0.267E-02 -.239E-03
   -.952E-02 0.555E+01 0.741E+01   0.986E-02 -.516E+01 -.744E+01   -.111E-02 -.398E+00 0.270E-01   -.215E-04 -.362E-03 -.573E-03
   -.318E-01 0.696E+01 0.618E+01   0.342E-01 -.632E+01 -.575E+01   -.214E-02 -.626E+00 -.435E+00   -.119E-03 -.151E-02 -.685E-03
   -.803E+00 0.540E+01 0.830E+01   0.708E+00 -.534E+01 -.831E+01   0.104E+00 -.876E-01 0.116E-01   0.450E-02 0.388E-02 -.453E-03
   0.311E+01 0.735E+01 0.986E+01   -.378E+01 -.720E+01 -.997E+01   0.663E+00 -.147E+00 0.105E+00   0.614E-02 0.258E-02 -.457E-03
   -.147E+00 0.528E+01 0.782E+01   0.598E-01 -.554E+01 -.783E+01   0.998E-01 0.253E+00 0.754E-02   0.480E-03 0.478E-02 -.236E-03
   -.573E+00 0.654E+01 0.799E+01   -.619E-01 -.693E+01 -.801E+01   0.621E+00 0.386E+00 0.248E-01   0.609E-03 0.410E-02 -.781E-04
   0.950E-03 0.596E+01 0.603E+01   -.673E-03 -.655E+01 -.601E+01   0.120E-03 0.580E+00 -.169E-01   0.432E-04 0.460E-02 -.493E-03
   -.630E-02 0.112E+02 0.617E+01   0.590E-02 -.121E+02 -.620E+01   0.472E-03 0.872E+00 0.200E-01   0.775E-04 0.346E-02 -.468E-03
   -.541E+01 0.117E+02 0.530E+01   0.581E+01 -.131E+02 -.531E+01   -.397E+00 0.145E+01 -.489E-02   -.463E-03 0.276E-02 -.537E-03
   -.206E+02 0.181E+02 0.501E+01   0.261E+02 -.212E+02 -.499E+01   -.548E+01 0.310E+01 -.180E-01   -.130E-02 0.119E-02 -.402E-03
   0.227E+00 0.118E+02 0.689E+01   0.262E+00 -.120E+02 -.685E+01   -.512E+00 0.198E+00 -.425E-01   -.310E-02 0.279E-02 -.281E-03
   0.765E+01 0.632E+01 0.627E+01   -.682E+01 -.651E+01 -.640E+01   -.818E+00 0.199E+00 0.125E+00   -.378E-02 0.104E-02 -.149E-03
   -.236E+01 0.182E+02 0.125E+02   0.272E+01 -.173E+02 -.127E+02   -.378E+00 -.927E+00 0.244E+00   -.733E-02 -.506E-03 -.436E-03
   -.860E+01 0.342E+02 0.234E+02   0.149E+02 -.306E+02 -.224E+02   -.634E+01 -.355E+01 -.102E+01   -.106E-01 -.383E-02 -.172E-02
   0.231E+01 0.182E+02 0.115E+02   -.266E+01 -.172E+02 -.117E+02   0.375E+00 -.935E+00 0.242E+00   0.714E-02 -.532E-03 -.751E-03
   0.839E+01 0.341E+02 0.211E+02   -.147E+02 -.305E+02 -.200E+02   0.633E+01 -.356E+01 -.107E+01   0.103E-01 -.360E-02 -.210E-02
   -.207E+00 0.117E+02 0.785E+01   -.281E+00 -.119E+02 -.780E+01   0.512E+00 0.197E+00 -.466E-01   0.311E-02 0.272E-02 -.116E-03
   -.752E+01 0.630E+01 0.784E+01   0.668E+01 -.649E+01 -.797E+01   0.826E+00 0.197E+00 0.131E+00   0.383E-02 0.995E-03 0.819E-04
   0.542E+01 0.117E+02 0.674E+01   -.582E+01 -.131E+02 -.674E+01   0.398E+00 0.145E+01 0.111E-03   0.633E-03 0.269E-02 -.113E-03
   0.206E+02 0.181E+02 0.689E+01   -.261E+02 -.212E+02 -.690E+01   0.548E+01 0.310E+01 0.179E-01   0.147E-02 0.119E-02 0.121E-03
   -.422E-02 -.502E+00 0.749E+01   0.298E-02 0.740E+00 -.758E+01   0.185E-02 -.225E+00 0.922E-01   0.138E-03 -.151E-02 -.267E-03
   -.893E-02 -.265E+02 0.646E+01   0.832E-02 0.327E+02 -.653E+01   0.559E-03 -.628E+01 0.628E-01   0.155E-03 -.209E-02 -.414E-03
   -.561E+01 0.176E+01 0.366E+01   0.707E+01 -.137E+01 -.359E+01   -.148E+01 -.404E+00 -.707E-01   0.176E-03 0.380E-03 -.370E-03
   -.195E+01 -.472E+01 0.384E+01   0.278E+01 0.516E+01 -.380E+01   -.830E+00 -.430E+00 -.503E-01   -.373E-03 -.164E-02 -.501E-03
   0.227E+02 0.892E+01 0.139E+02   -.216E+02 -.937E+01 -.144E+02   -.109E+01 0.471E+00 0.507E+00   -.102E-01 -.175E-02 -.296E-03
   0.225E+02 -.923E+01 0.141E+02   -.215E+02 0.968E+01 -.146E+02   -.106E+01 -.456E+00 0.515E+00   -.935E-02 -.101E-02 -.365E-03
   -.225E+02 0.882E+01 0.134E+02   0.214E+02 -.927E+01 -.139E+02   0.110E+01 0.464E+00 0.471E+00   0.999E-02 -.168E-02 -.656E-03
   -.224E+02 -.913E+01 0.135E+02   0.213E+02 0.958E+01 -.140E+02   0.107E+01 -.450E+00 0.480E+00   0.906E-02 -.104E-02 -.741E-03
   0.570E+01 0.174E+01 0.629E+01   -.717E+01 -.135E+01 -.623E+01   0.148E+01 -.404E+00 -.562E-01   -.748E-04 0.355E-03 0.303E-03
   0.204E+01 -.470E+01 0.652E+01   -.287E+01 0.513E+01 -.648E+01   0.834E+00 -.430E+00 -.356E-01   0.466E-03 -.165E-02 0.145E-03
   0.107E+01 -.143E+02 0.766E+01   -.215E+01 0.153E+02 -.770E+01   0.109E+01 -.999E+00 0.437E-01   -.458E-03 -.202E-02 -.187E-03
   0.111E+01 -.598E+01 0.664E+01   -.120E+01 0.670E+01 -.663E+01   0.726E-01 -.693E+00 -.142E-01   0.903E-03 -.487E-02 -.381E-03
   -.104E+01 -.143E+02 0.568E+01   0.212E+01 0.153E+02 -.571E+01   -.109E+01 -.999E+00 0.238E-01   0.645E-03 -.206E-02 -.684E-03
   -.110E+01 -.601E+01 0.522E+01   0.119E+01 0.672E+01 -.521E+01   -.710E-01 -.693E+00 -.171E-01   -.773E-03 -.498E-02 -.752E-03
   0.769E+01 -.888E+01 0.615E+01   -.701E+01 0.904E+01 -.627E+01   -.669E+00 -.159E+00 0.123E+00   -.524E-02 -.328E-02 -.293E-03
   0.228E+01 -.110E+02 0.680E+01   -.196E+01 0.112E+02 -.676E+01   -.322E+00 -.214E+00 -.439E-01   -.339E-02 -.417E-02 -.303E-03
   -.878E+01 -.349E+02 0.241E+02   0.151E+02 0.314E+02 -.232E+02   -.635E+01 0.354E+01 -.977E+00   -.690E-02 0.297E-02 -.159E-02
   -.186E+01 -.182E+02 0.123E+02   0.216E+01 0.173E+02 -.125E+02   -.313E+00 0.931E+00 0.226E+00   -.331E-02 0.905E-04 -.517E-03
   0.857E+01 -.348E+02 0.218E+02   -.149E+02 0.313E+02 -.208E+02   0.635E+01 0.355E+01 -.103E+01   0.663E-02 0.277E-02 -.199E-02
   0.180E+01 -.181E+02 0.114E+02   -.210E+01 0.172E+02 -.116E+02   0.310E+00 0.940E+00 0.224E+00   0.310E-02 0.397E-04 -.829E-03
   -.756E+01 -.885E+01 0.768E+01   0.687E+01 0.901E+01 -.781E+01   0.677E+00 -.157E+00 0.129E+00   0.523E-02 -.319E-02 -.132E-03
   -.225E+01 -.109E+02 0.775E+01   0.194E+01 0.111E+02 -.770E+01   0.323E+00 -.214E+00 -.474E-01   0.345E-02 -.413E-02 -.200E-03
   -.174E+01 -.507E+01 0.785E+01   0.153E+01 0.529E+01 -.787E+01   0.189E+00 -.231E+00 0.245E-01   0.109E-02 -.504E-02 -.184E-03
   -.101E+01 -.465E+01 0.775E+01   0.101E+01 0.483E+01 -.775E+01   0.102E-01 -.156E+00 0.722E-02   -.543E-03 -.347E-02 -.249E-03
   -.756E-02 -.711E+01 0.610E+01   0.741E-02 0.746E+01 -.613E+01   0.755E-03 -.356E+00 0.228E-01   0.542E-04 -.530E-02 -.650E-03
   -.115E-02 -.291E+01 0.596E+01   0.852E-03 0.318E+01 -.595E+01   0.318E-03 -.268E+00 -.175E-01   0.359E-04 -.457E-02 -.547E-03
   0.177E+01 -.506E+01 0.630E+01   -.156E+01 0.529E+01 -.632E+01   -.188E+00 -.231E+00 0.160E-01   -.970E-03 -.508E-02 -.521E-03
   0.101E+01 -.466E+01 0.678E+01   -.101E+01 0.484E+01 -.679E+01   -.104E-01 -.155E+00 0.640E-02   0.654E-03 -.355E-02 -.500E-03
   -.301E+01 -.725E+01 0.102E+02   0.356E+01 0.708E+01 -.103E+02   -.554E+00 0.161E+00 0.110E+00   -.371E-02 -.150E-02 -.281E-03
   0.114E+01 -.444E+01 0.865E+01   -.112E+01 0.434E+01 -.866E+01   -.269E-01 0.123E+00 0.717E-02   -.138E-02 0.284E-04 -.250E-03
   -.283E-01 -.699E+01 0.599E+01   0.303E-01 0.632E+01 -.558E+01   -.222E-02 0.673E+00 -.421E+00   -.116E-03 0.152E-02 -.706E-03
   -.579E-02 -.499E+01 0.734E+01   0.566E-02 0.458E+01 -.736E+01   -.639E-03 0.427E+00 0.273E-01   -.557E-04 0.266E-02 -.500E-03
   0.305E+01 -.724E+01 0.986E+01   -.361E+01 0.707E+01 -.997E+01   0.555E+00 0.160E+00 0.105E+00   0.366E-02 -.151E-02 -.503E-03
   -.115E+01 -.442E+01 0.828E+01   0.113E+01 0.431E+01 -.829E+01   0.256E-01 0.121E+00 0.356E-02   0.130E-02 0.206E-03 -.437E-03
   -.425E+00 0.104E+00 -.621E+03   0.514E+00 -.229E+00 0.603E+03   -.916E-01 0.103E+00 0.178E+02   0.321E-03 0.826E-02 0.565E-02
   0.573E-01 0.292E+00 -.169E+02   -.291E-12 0.707E-12 0.000E+00   -.579E-01 -.292E+00 0.170E+02   0.146E-03 0.512E-02 -.267E-01

 POSITION                                       TOTAL-FORCE (eV/Angst)
     -7.42801     12.75426      7.46445        -0.001682      0.011756     -0.000495
      0.00025      1.42373      7.46572         0.014116     -0.017579     -0.001284
      2.48206      0.02443      7.46309        -0.013741     -0.002491     -0.000657
      2.48039      1.44676      7.47376        -0.015320     -0.012344      0.000662
      4.95194      0.02425      7.46610         0.012939     -0.001605     -0.003648
      4.95370      1.44655      7.47578         0.014931     -0.011615     -0.002163
      0.00150     12.75389      7.46578         0.000907      0.013590     -0.001073
      7.43380      1.42335      7.46469        -0.015608     -0.015765     -0.001555
      2.47956     12.72948      7.47383         0.000631      0.019825      0.001918
      9.91084      1.39465      7.46310        -0.006163      0.003748     -0.001188
      4.95452     12.72970      7.47578        -0.000696      0.018876     -0.000751
     12.38374      1.39483      7.46615         0.004950      0.003866     -0.003788
     13.61548      2.11726      7.46725        -0.012001     -0.012468     -0.004618
     -1.25136      3.53918      7.47743         0.014228     -0.011791     -0.003696
      1.23751      2.14536      7.47544        -0.011269     -0.023711     -0.000006
      1.23412      3.56854      7.50078         0.002496      0.004482     -0.001184
      3.71708      2.17061      7.49071        -0.000781     -0.005795     -0.004467
      3.71711      3.59176      7.53740         0.000160      0.025622     -0.005785
      6.19658      2.14506      7.47620         0.010497     -0.023044     -0.003273
      6.19993      3.56828      7.50044        -0.003908      0.006853     -0.004249
      8.67903      2.11696      7.46277         0.012098     -0.010647     -0.001440
      8.68518      3.53894      7.47043        -0.014171     -0.010909      0.001182
     11.14723      2.10529      7.46413         0.000446     -0.005421     -0.004481
     11.14717      3.52409      7.46606         0.000162      0.016250     -0.005612
     12.36867      4.24764      7.47460         0.002922      0.010869     -0.005551
     -2.50106      5.66950      7.48249         0.011919      0.004332     -0.003006
     -0.01869      4.24781      7.50001        -0.027981     -0.006555     -0.001097
     -0.05244      5.66200      7.52450         0.017332      0.007157      0.001196
      2.47222      4.31024      7.55098        -0.015406     -0.001659      0.007740
      2.41866      5.72186      7.64551         0.006028     -0.004398      0.020855
      4.96205      4.31025      7.55333         0.013992      0.000132      0.003603
      5.01567      5.72184      7.65028        -0.006529     -0.000725      0.014187
      7.45256      4.24760      7.49458         0.028646     -0.005681      0.000057
      7.48605      5.66191      7.51713        -0.017057      0.007462      0.003480
      9.92560      4.24751      7.46859        -0.002275      0.011811      0.000486
      9.93455      5.66944      7.47519        -0.009515      0.004031      0.004608
     -3.71354      6.37447      7.47503         0.000757      0.009995     -0.000103
     -3.71351      7.78521      7.47379         0.000114     -0.003467     -0.004761
     -1.28097      6.37973      7.50486        -0.031902     -0.012373     -0.003143
     -1.26622      7.79950      7.50466        -0.007378      0.000677     -0.003430
      1.17022      6.36856      7.57807        -0.013324      0.010550      0.011234
      1.17674      7.80326      7.57803        -0.013590      0.005244      0.009242
      6.26382      6.36853      7.57753         0.014411      0.010679      0.006048
      6.25730      7.80328      7.57757         0.014499      0.005034      0.004205
      8.71446      6.37970      7.49383         0.033436     -0.011500      0.005620
      8.69972      7.79949      7.49347         0.008460     -0.000107      0.004672
     -4.93490      8.49993      7.47328         0.013286     -0.014136     -0.000451
     -4.93852      9.92860      7.46841        -0.021964      0.019334     -0.003237
     -2.49211      8.49991      7.48110        -0.010795     -0.014619     -0.007445
     -2.48834      9.92852      7.47450         0.022762      0.020800     -0.007722
     -0.04397      8.51065      7.52491         0.008170     -0.003403      0.000484
     -0.01774      9.92877      7.50019        -0.013731      0.007606      0.000684
      2.42324      8.45115      7.64401        -0.012207     -0.002861      0.012461
      2.47231      9.86402      7.55099        -0.006728      0.001249      0.006223
      5.01110      8.45117      7.64876         0.011594     -0.006209      0.006248
      4.96196      9.86402      7.55326         0.005559     -0.000441      0.002151
      7.47762      8.51073      7.51757        -0.008085     -0.004089      0.002022
      7.45161      9.92896      7.49475         0.013987      0.006254      0.001319
     -6.17569     10.64010      7.47061        -0.015269     -0.010468      0.001717
     -6.18244     12.06083      7.46288         0.005904      0.012907     -0.000312
     -3.71342     10.64550      7.46603         0.000669     -0.018375     -0.006401
     -3.71333     12.06999      7.46421         0.000066     -0.002529     -0.003178
     -1.25105     10.63989      7.47754         0.015324     -0.010422     -0.002454
     -1.24415     12.06057      7.46735        -0.005744      0.014047     -0.003504
      1.23393     10.60704      7.50075        -0.002345     -0.010265      0.001111
      1.23713     12.03102      7.47559        -0.010654      0.019051      0.000877
      3.71713     10.58338      7.53766        -0.000351     -0.004628     -0.005608
      3.71709     12.00506      7.49089        -0.000816      0.010587     -0.001637
      6.20012     10.60731      7.50034         0.002401     -0.012365     -0.002239
      6.19696     12.03136      7.47614         0.009250      0.016464     -0.001673
      3.71512      7.08520      8.31686        -0.001066     -0.014683     -0.013925
    total drift:                               -0.000429      0.004613     -0.026477

  FREE ENERGIE OF THE ION-ELECTRON SYSTEM (eV)
  free  energy   TOTEN  =      -653.41698160 eV

  energy  without entropy=     -653.37738077  energy(sigma->0) =     -653.39718119

 d Force = 0.6041398E-03[-0.714E-04, 0.128E-02]  d Energy = 0.6210511E-03-0.169E-04
 d Force =-0.5273382E+00[-0.532E+00,-0.523E+00]  d Ewald  =-0.7119766E+01 0.659E+01

 Conjugate gradient step on ions:
 trial-energy change:   -0.000621  1 .order   -0.000641   -0.001385    0.000104
  (g-gl).g = 0.166E-02      g.g   = 0.168E-02  gl.gl    = 0.356E-02
 g(Force)  = 0.151E-02   g(Stress)= 0.165E-03 ortho     = 0.233E-04
 gamma     =   0.46513
 trial     =   0.82149
 opt step  =   0.76402  (harmonic =   0.76402) maximal distance =0.00170286
 next E    =  -653.417005   (d E  =  -0.00064)

 reached required accuracy - stopping structural energy minimisation