 vasp.5.4.4.18Apr17-6-g9f103f2a35 (build Jan 14 2022 15:04:31) complex

 executed on             LinuxIFC date 2023.01.23  20:04:58

 INCAR:
 POTCAR:    PAW_PBE C 08Apr2002
 POTCAR:    PAW_PBE N 08Apr2002
 POTCAR:    PAW_PBE C 08Apr2002
 POTCAR:    PAW_PBE Cr_pv 02Aug2007
 POTCAR:    PAW_PBE C 08Apr2002
   VRHFIN =C: s2p2

   TITEL  = PAW_PBE C 08Apr2002
   POMASS =   12.011; ZVAL   =    4.000    mass and valenz
   ENMAX  =  400.000; ENMIN  =  300.000 eV

[...]

   TITEL  = PAW_PBE C 08Apr2002
   POMASS =   12.011; ZVAL   =    4.000    mass and valenz
   ENMAX  =  400.000; ENMIN  =  300.000 eV

   TITEL  = PAW_PBE Cr_pv 02Aug2007
   POMASS =   51.996; ZVAL   =   12.000    mass and valenz
   ENMAX  =  265.681; ENMIN  =  199.261 eV

 Optimization of the real space projectors (new method)

 maximal supplied QI-value         = 25.13
 optimisation between [QCUT,QGAM] = [ 10.56, 21.36] = [ 31.20,127.80] Ry
 Optimized for a Real-space Cutoff    1.32 Angstroem

   l    n(q)    QCUT    max X(q) W(low)/X(q) W(high)/X(q)  e(spline)
   0      8    10.556   115.676    0.17E-03    0.39E-03    0.26E-06
   0      8    10.556    87.132    0.17E-03    0.39E-03    0.26E-06
   1      8    10.556     4.429    0.24E-03    0.31E-03    0.16E-06
   1      8    10.556     2.733    0.17E-03    0.22E-03    0.19E-06
 Optimization of the real space projectors (new method)

[...]

   l    n(q)    QCUT    max X(q) W(low)/X(q) W(high)/X(q)  e(spline)
   0      8    10.556   115.676    0.17E-03    0.39E-03    0.26E-06
   0      8    10.556    87.132    0.17E-03    0.39E-03    0.26E-06
   1      8    10.556     4.429    0.24E-03    0.31E-03    0.16E-06
   1      8    10.556     2.733    0.17E-03    0.22E-03    0.19E-06
 Optimization of the real space projectors (new method)

 maximal supplied QI-value         = 16.25
 optimisation between [QCUT,QGAM] = [ 10.73, 21.45] = [ 32.22,128.87] Ry
 Optimized for a Real-space Cutoff    1.53 Angstroem

   l    n(q)    QCUT    max X(q) W(low)/X(q) W(high)/X(q)  e(spline)
   1      9    10.726     3.262    0.64E-04    0.35E-04    0.11E-06
   1      9    10.726     5.741    0.13E-03    0.48E-04    0.19E-06
   2      9    10.726    60.438    0.12E-03    0.29E-04    0.13E-06
   2      9    10.726    55.380    0.12E-03    0.29E-04    0.13E-06
   0     10    10.726    80.273    0.43E-04    0.74E-05    0.81E-07
   0     10    10.726    36.654    0.34E-04    0.61E-05    0.73E-07
  PAW_PBE C 08Apr2002                   :
  PAW_PBE N 08Apr2002                   :
  PAW_PBE C 08Apr2002                   :
  PAW_PBE Cr_pv 02Aug2007               :

 POSCAR: POSCAR-clean
  positions in direct lattice
  velocities in cartesian coordinates
 exchange correlation table for  LEXCH =        8
   RHO(1)=    0.500       N(1)  =     2000
   RHO(2)=  100.500       N(2)  =     4000

 VTST: version 3.2, (02/03/18)

 CHAIN: initializing optimizer

 OPT: Using VASP Conjugate-Gradient optimizer
 CHAIN: Read ICHAIN            0

 POSCAR: POSCAR-clean
  positions in direct lattice
  velocities in cartesian coordinates

 ion  position               nearest neighbor table
   1  1.000  1.000  0.498-   2 1.42  60 1.42  70 1.43
   2  0.056  0.111  0.498-   1 1.42  13 1.42  15 1.44
   3  0.168  0.002  0.498-   4 1.42  62 1.42  60 1.43
   4  0.224  0.113  0.498-   3 1.42  15 1.42  17 1.43
   5  0.335  0.002  0.498-   6 1.42  64 1.43  62 1.43
   6  0.391  0.114  0.498-   5 1.42  17 1.43  19 1.43
   7  0.500  0.000  0.498-   8 1.42  64 1.42  66 1.43
   8  0.556  0.111  0.498-   7 1.42  21 1.42  19 1.43
   9  0.666  0.998  0.498-  66 1.42  10 1.42  68 1.44
  10  0.722  0.110  0.498-  23 1.42   9 1.42  21 1.43
  11  0.832  0.998  0.498-  12 1.42  70 1.42  68 1.43
  12  0.888  0.109  0.498-  11 1.42  23 1.43  13 1.43
  13  0.999  0.166  0.498-  14 1.42   2 1.42  12 1.43
  14  0.054  0.277  0.498-  13 1.42  25 1.43  27 1.43
  15  0.168  0.168  0.498-  16 1.42   4 1.42   2 1.44
  16  0.223  0.280  0.500-  15 1.42  27 1.43  29 1.45
  17  0.335  0.170  0.499-  18 1.42   6 1.43   4 1.43
  18  0.392  0.282  0.502-  17 1.42  29 1.44  31 1.44
  19  0.502  0.169  0.498-  20 1.42   6 1.43   8 1.43
  20  0.558  0.280  0.500-  33 1.41  19 1.42  31 1.44
  21  0.666  0.166  0.498-  22 1.42   8 1.42  10 1.43
  22  0.722  0.277  0.498-  33 1.41  21 1.42  35 1.42
  23  0.832  0.165  0.498-  24 1.42  10 1.42  12 1.43
  24  0.888  0.276  0.498-  23 1.42  25 1.43  35 1.43
  25  0.999  0.332  0.498-  26 1.42  14 1.43  24 1.43
  26  0.054  0.444  0.499-  39 1.42  37 1.42  25 1.42
  27  0.166  0.333  0.500-  28 1.42  16 1.43  14 1.43
  28  0.219  0.444  0.502-  41 1.41  27 1.42  39 1.42
  29  0.336  0.338  0.503-  30 1.42  18 1.44  16 1.45
  30  0.389  0.449  0.509-  41 1.41  29 1.42  71 1.96
  31  0.504  0.338  0.504-  32 1.43  18 1.44  20 1.44
  32  0.561  0.450  0.512-  43 1.41  31 1.43  71 2.00
  33  0.668  0.333  0.500-  34 1.40  20 1.41  22 1.41
  34  0.724  0.443  0.501-  43 1.40  33 1.40  45 1.42
  35  0.833  0.333  0.498-  22 1.42  36 1.42  24 1.43
  36  0.890  0.444  0.498-  45 1.41  37 1.41  35 1.42
  37  1.000  0.500  0.498-  36 1.41  26 1.42  38 1.42
  38  0.056  0.611  0.498-  47 1.42  49 1.42  37 1.42
  39  0.165  0.500  0.500-  26 1.42  28 1.42  40 1.42
  40  0.221  0.611  0.500-  49 1.42  51 1.42  39 1.42
  41  0.329  0.500  0.505-  28 1.41  30 1.41  42 1.43
  42  0.386  0.612  0.505-  53 1.41  51 1.42  41 1.43
  43  0.671  0.498  0.505-  34 1.40  32 1.41  44 1.43
  44  0.727  0.611  0.505-  57 1.41  55 1.41  43 1.43
  45  0.835  0.499  0.499-  36 1.41  34 1.42  46 1.42
  46  0.890  0.611  0.499-  57 1.42  47 1.42  45 1.42
  47  0.001  0.667  0.498-  38 1.42  46 1.42  48 1.42
  48  0.056  0.779  0.498-  59 1.42  47 1.42  61 1.42
  49  0.166  0.667  0.499-  40 1.42  38 1.42  50 1.42
  50  0.222  0.779  0.498-  61 1.42  49 1.42  63 1.42
  51  0.331  0.667  0.502-  52 1.42  42 1.42  40 1.42
  52  0.388  0.778  0.500-  51 1.42  65 1.42  63 1.43
  53  0.495  0.663  0.509-  42 1.41  54 1.42  71 1.97
  54  0.553  0.774  0.503-  53 1.42  67 1.43  65 1.44
  55  0.667  0.661  0.510-  44 1.41  56 1.43  71 2.00
  56  0.720  0.772  0.504-  55 1.43  67 1.44  69 1.44
  57  0.836  0.667  0.501-  44 1.41  46 1.42  58 1.42
  58  0.890  0.778  0.500-  57 1.42  69 1.42  59 1.43
  59  0.001  0.834  0.498-  60 1.42  48 1.42  58 1.43
  60  0.057  0.946  0.498-  59 1.42   1 1.42   3 1.43
  61  0.167  0.835  0.498-  50 1.42  62 1.42  48 1.42
  62  0.223  0.946  0.498-  61 1.42   3 1.42   5 1.43
  63  0.333  0.835  0.498-  64 1.42  50 1.42  52 1.43
  64  0.389  0.946  0.498-  63 1.42   7 1.42   5 1.43
  65  0.499  0.832  0.500-  66 1.42  52 1.42  54 1.44
  66  0.555  0.943  0.498-   9 1.42  65 1.42   7 1.43
  67  0.665  0.830  0.502-  68 1.42  54 1.43  56 1.44
  68  0.721  0.941  0.499-  67 1.42  11 1.43   9 1.44
  69  0.832  0.831  0.500-  58 1.42  70 1.43  56 1.44
  70  0.888  0.943  0.498-  11 1.42  69 1.43   1 1.43
  71  0.525  0.556  0.556-  30 1.96  53 1.97  32 2.00  55 2.00

IMPORTANT INFORMATION: All symmetrisations will be switched off!
NOSYMM: (Re-)initialisation of all symmetry stuff for point group C_1.

 KPOINTS: K-Points

Automatic generation of k-mesh.
Space group operators:
 irot       det(A)        alpha          n_x          n_y          n_z        tau_x        tau_y        tau_z
    1     1.000000     0.000000     1.000000     0.000000     0.000000     0.000000     0.000000     0.000000

 Subroutine IBZKPT returns following result:

 Found      4 irreducible k-points:

 Following reciprocal coordinates:
            Coordinates               Weight
  0.000000  0.000000  0.000000      1.000000
  0.500000 -0.000000  0.000000      1.000000
 -0.000000  0.500000  0.000000      1.000000
  0.500000  0.500000  0.000000      1.000000

 Following cartesian coordinates:
            Coordinates               Weight
  0.000000  0.000000  0.000000      1.000000
  0.033651  0.019610  0.000000      1.000000
  0.000008  0.039220  0.000000      1.000000
  0.033659  0.058830  0.000000      1.000000

 SYSTEM =  unknown system
 POSCAR =  POSCAR-clean

 Startparameter for this run:
   NWRITE =      2    write-flag & timer
   PREC   = accura    normal or accurate (medium, high low for compatibility)
   ISTART =      0    job   : 0-new  1-cont  2-samecut
   ICHARG =      2    charge: 1-file 2-atom 10-const
   ISPIN  =      2    spin polarized calculation?
   LNONCOLLINEAR =      F non collinear calculations
   LSORBIT =      F    spin-orbit coupling
   INIWAV =      1    electr: 0-lowe 1-rand  2-diag
   LASPH  =      F    aspherical Exc in radial PAW
   METAGGA=      F    non-selfconsistent MetaGGA calc.

 Electronic Relaxation 1
   ENCUT  =  440.0 eV  32.34 Ry    5.69 a.u.  25.42 25.24 25.66*2*pi/ulx,y,z
   ENINI  =  440.0     initial cutoff
   ENAUG  =  644.9 eV  augmentation charge cutoff
   NELM   =     50;   NELMIN=  2; NELMDL= -5     # of ELM steps
   EDIFF  = 0.1E-04   stopping-criterion for ELM
   LREAL  =      T    real-space projection
   NLSPLINE    = F    spline interpolate recip. space projectors
   LCOMPAT=      F    compatible to vasp.4.4
   GGA_COMPAT  = T    GGA compatible to vasp.4.4-vasp.4.6
   LMAXPAW     = -100 max onsite density
   LMAXMIX     =    2 max onsite mixed and CHGCAR
   VOSKOWN=      0    Vosko Wilk Nusair interpolation
   ROPT   =   -0.00025  -0.00025  -0.00025  -0.00025
 Ionic relaxation
   EDIFFG = -.5E-01   stopping-criterion for IOM
   NSW    =    400    number of steps for IOM
   NBLOCK =      1;   KBLOCK =    400    inner block; outer block
   IBRION =      2    ionic relax: 0-MD 1-quasi-New 2-CG
   NFREE  =      1    steps in history (QN), initial steepest desc. (CG)
   ISIF   =      2    stress and relaxation
   IWAVPR =     11    prediction:  0-non 1-charg 2-wave 3-comb
   ISYM   =      0    0-nonsym 1-usesym 2-fastsym
   LCORR  =      T    Harris-Foulkes like correction to forces

   POTIM  = 0.3000    time-step for ionic-motion
   TEIN   =    0.0    initial temperature
   TEBEG  =    0.0;   TEEND  =   0.0 temperature during run
   SMASS  =  -3.00    Nose mass-parameter (am)
   estimated Nose-frequenzy (Omega)   =  0.10E-29 period in steps =****** mass=  -0.505E-26a.u.
   SCALEE = 1.0000    scale energy and forces
   NPACO  =    256;   APACO  = 16.0  distance and # of slots for P.C.
   PSTRESS=    0.0 pullay stress

  Mass of Ions in am
   POMASS =  12.01 14.00 12.01 52.00
  Ionic Valenz
   ZVAL   =   4.00  5.00  4.00 12.00
  Atomic Wigner-Seitz radii
  virtual crystal weights
   VCA    =   1.00  1.00  1.00  1.00
   NELECT =     293.0000    total number of electrons
   NUPDOWN=      -1.0000    fix difference up-down

 DOS related values:
   EMIN   =  10.00;   EMAX   =-10.00  energy-range for DOS
   EFERMI =   0.00
   ISMEAR =     0;   SIGMA  =   0.10  broadening in eV -4-tet -1-fermi 0-gaus

 Electronic relaxation 2 (details)
   IALGO  =     68    algorithm
   LDIAG  =      T    sub-space diagonalisation (order eigenvalues)
   LSUBROT=      F    optimize rotation matrix (better conditioning)
   TURBO    =      0    0=normal 1=particle mesh
   IRESTART =      0    0=no restart 2=restart with 2 vectors
   NREBOOT  =      0    no. of reboots
   NMIN     =      0    reboot dimension
[...]

 FORCES acting on ions
    electron-ion (+dipol)            ewald-force                    non-local-force                 convergence-correction
   0.189E+01 0.706E-01 0.774E+01   -.198E+01 -.119E+00 -.777E+01   0.940E-01 0.505E-01 0.315E-01   -.510E-03 0.383E-03 -.866E-04
   -.211E+01 0.305E+00 0.728E+01   0.218E+01 -.304E+00 -.730E+01   -.645E-01 -.729E-02 0.162E-01   0.228E-03 -.102E-03 -.165E-03
   0.166E+01 0.112E+01 0.726E+01   -.170E+01 -.105E+01 -.728E+01   0.359E-01 -.781E-01 0.242E-01   -.725E-03 0.717E-03 -.248E-03
   -.481E+00 0.130E+01 0.757E+01   0.405E+00 -.128E+01 -.759E+01   0.820E-01 -.323E-01 0.133E-01   -.827E-03 0.451E-03 -.365E-03
   0.158E+01 0.194E+01 0.678E+01   -.171E+01 -.202E+01 -.680E+01   0.129E+00 0.799E-01 0.185E-01   0.371E-03 0.603E-03 -.332E-03
   0.258E+01 0.382E+01 0.732E+01   -.323E+01 -.403E+01 -.732E+01   0.657E+00 0.207E+00 -.130E-01   0.436E-04 -.445E-03 -.297E-03
   -.167E+01 0.352E+01 0.718E+01   0.175E+01 -.408E+01 -.720E+01   -.756E-01 0.560E+00 0.206E-01   0.374E-03 -.905E-04 -.252E-03
   0.178E+01 0.863E+01 0.785E+01   -.191E+01 -.941E+01 -.788E+01   0.130E+00 0.777E+00 0.280E-01   -.451E-03 -.118E-02 -.165E-03
   -.388E+01 0.366E+00 0.744E+01   0.406E+01 -.691E+00 -.745E+01   -.175E+00 0.332E+00 0.159E-01   -.140E-03 -.134E-02 -.192E-03
   -.794E+00 0.264E+01 0.707E+01   0.139E+01 -.312E+01 -.710E+01   -.603E+00 0.481E+00 0.248E-01   0.113E-04 -.124E-02 -.579E-04
   0.606E+00 0.705E-01 0.683E+01   -.598E+00 -.224E+00 -.683E+01   -.887E-02 0.162E+00 -.639E-02   0.583E-03 -.719E-03 -.117E-03
   -.112E+01 -.146E+00 0.702E+01   0.130E+01 -.432E-01 -.705E+01   -.175E+00 0.191E+00 0.270E-01   0.913E-03 -.995E-03 -.383E-04
   0.111E+01 0.448E+01 0.715E+01   -.104E+01 -.452E+01 -.716E+01   -.682E-01 0.538E-01 0.114E-01   0.147E-02 0.373E-04 -.954E-04
   0.136E+01 0.274E+01 0.669E+01   -.118E+01 -.282E+01 -.672E+01   -.189E+00 0.734E-01 0.224E-01   0.144E-02 0.702E-03 -.122E-03
   0.322E+01 0.582E+01 0.816E+01   -.322E+01 -.570E+01 -.818E+01   -.113E-01 -.137E+00 0.184E-01   -.573E-03 0.222E-03 -.390E-03
   -.795E+00 0.658E+01 0.107E+02   0.122E+01 -.636E+01 -.108E+02   -.440E+00 -.236E+00 0.131E+00   -.124E-02 -.632E-03 -.550E-03
   0.375E+01 0.792E+01 0.796E+01   -.403E+01 -.761E+01 -.800E+01   0.280E+00 -.323E+00 0.335E-01   -.769E-03 -.869E-03 -.366E-03
   0.221E+01 0.730E+01 0.709E+01   -.271E+01 -.688E+01 -.672E+01   0.499E+00 -.422E+00 -.367E+00   -.382E-03 -.145E-02 -.276E-03
   0.543E+01 0.133E+02 0.985E+01   -.587E+01 -.145E+02 -.987E+01   0.440E+00 0.122E+01 0.237E-01   0.406E-03 -.134E-02 -.147E-03
   0.263E+02 0.192E+02 0.126E+02   -.324E+02 -.219E+02 -.128E+02   0.610E+01 0.268E+01 0.246E+00   0.650E-03 0.525E-03 0.215E-03
   -.892E+01 0.129E+02 0.686E+01   0.929E+01 -.143E+02 -.687E+01   -.357E+00 0.142E+01 0.126E-01   -.104E-02 -.612E-03 -.802E-04
   -.253E+02 0.166E+02 0.633E+01   0.307E+02 -.196E+02 -.638E+01   -.536E+01 0.309E+01 0.530E-01   -.927E-03 0.776E-03 -.768E-04
   -.403E+01 0.444E+01 0.628E+01   0.431E+01 -.464E+01 -.627E+01   -.274E+00 0.203E+00 -.115E-01   0.394E-03 -.566E-03 -.184E-04
   -.384E+01 0.159E+01 0.626E+01   0.439E+01 -.191E+01 -.629E+01   -.546E+00 0.326E+00 0.295E-01   0.558E-03 0.167E-03 -.745E-04
   -.239E+00 0.482E+01 0.582E+01   0.527E+00 -.483E+01 -.581E+01   -.285E+00 0.975E-02 -.179E-01   0.175E-02 0.950E-03 -.359E-04
   0.122E+01 0.305E+01 0.606E+01   -.994E+00 -.306E+01 -.610E+01   -.232E+00 0.272E-03 0.413E-01   0.161E-02 0.702E-03 -.446E-04
   0.429E+01 0.109E+02 0.667E+01   -.406E+01 -.110E+02 -.665E+01   -.231E+00 0.300E-01 -.222E-01   -.386E-03 0.161E-03 -.410E-03
   0.121E+02 0.679E+01 0.427E+01   -.119E+02 -.673E+01 -.432E+01   -.241E+00 -.690E-01 0.561E-01   -.139E-02 0.184E-04 -.450E-03
   0.164E+01 0.196E+02 0.149E+02   -.148E+01 -.187E+02 -.151E+02   -.169E+00 -.960E+00 0.227E+00   -.220E-02 -.241E-02 -.762E-03
   -.437E+01 0.376E+02 0.326E+02   0.106E+02 -.341E+02 -.319E+02   -.621E+01 -.348E+01 -.770E+00   -.300E-02 -.187E-02 -.131E-02
   0.104E+02 0.184E+02 0.105E+02   -.121E+02 -.167E+02 -.106E+02   0.173E+01 -.173E+01 0.957E-01   0.109E-02 -.113E-02 0.285E-03
   0.125E+02 0.287E+02 0.911E+01   -.199E+02 -.241E+02 -.737E+01   0.738E+01 -.457E+01 -.171E+01   0.196E-02 -.266E-02 0.352E-03
   -.503E+01 0.119E+02 0.966E+01   0.470E+01 -.120E+02 -.953E+01   0.334E+00 0.175E+00 -.132E+00   0.303E-03 0.649E-03 0.169E-03
   -.129E+02 -.202E+02 0.108E+02   0.124E+02 0.267E+02 -.110E+02   0.434E+00 -.647E+01 0.200E+00   0.108E-02 -.687E-03 0.242E-04
   -.123E+02 0.509E+01 0.576E+01   0.137E+02 -.468E+01 -.576E+01   -.133E+01 -.410E+00 -.119E-01   -.586E-03 0.713E-03 -.213E-03
   -.107E+02 -.649E-01 0.717E+01   0.114E+02 0.468E+00 -.719E+01   -.636E+00 -.401E+00 0.197E-01   -.245E-03 0.882E-03 -.408E-03
   -.344E+01 -.128E+01 0.662E+01   0.384E+01 0.152E+01 -.663E+01   -.400E+00 -.249E+00 0.139E-01   0.554E-03 0.421E-03 -.276E-03
   -.195E+01 -.182E+01 0.666E+01   0.200E+01 0.197E+01 -.669E+01   -.573E-01 -.144E+00 0.267E-01   0.266E-03 -.207E-03 -.296E-03
   0.524E+01 0.845E+00 0.355E+01   -.506E+01 -.824E+00 -.351E+01   -.195E+00 -.172E-01 -.376E-01   0.791E-03 0.335E-04 -.936E-04
   0.560E+01 -.113E+01 0.328E+01   -.549E+01 0.113E+01 -.321E+01   -.116E+00 0.370E-02 -.585E-01   0.123E-02 -.220E-03 -.755E-04
   0.274E+02 0.103E+02 0.152E+02   -.266E+02 -.109E+02 -.159E+02   -.727E+00 0.525E+00 0.703E+00   -.411E-02 0.112E-03 -.993E-03
   0.276E+02 -.103E+02 0.150E+02   -.269E+02 0.108E+02 -.158E+02   -.731E+00 -.486E+00 0.760E+00   -.444E-02 0.523E-03 -.987E-03
   -.169E+02 -.828E+00 0.141E+02   0.148E+02 0.140E+01 -.143E+02   0.217E+01 -.567E+00 0.258E+00   0.285E-02 -.119E-02 0.540E-03
   -.205E+02 -.127E+02 0.148E+02   0.194E+02 0.137E+02 -.152E+02   0.114E+01 -.963E+00 0.419E+00   0.314E-02 0.209E-02 0.239E-03
   -.873E+01 -.843E+01 0.782E+01   0.966E+01 0.941E+01 -.781E+01   -.919E+00 -.967E+00 -.123E-01   -.842E-05 0.375E-03 -.437E-03
   -.759E+01 -.454E+01 0.706E+01   0.747E+01 0.517E+01 -.703E+01   0.120E+00 -.641E+00 -.424E-01   -.251E-03 0.567E-03 -.538E-03
   -.274E+01 -.586E+01 0.720E+01   0.281E+01 0.606E+01 -.724E+01   -.691E-01 -.197E+00 0.315E-01   -.628E-03 -.226E-03 -.484E-03
   -.175E+01 -.418E+01 0.644E+01   0.172E+01 0.430E+01 -.643E+01   0.401E-01 -.124E+00 -.162E-01   -.853E-03 -.458E-03 -.327E-03
   0.275E+01 -.387E+01 0.623E+01   -.264E+01 0.395E+01 -.628E+01   -.112E+00 -.860E-01 0.488E-01   0.121E-02 -.309E-03 -.713E-04
   0.119E+01 -.363E+01 0.577E+01   -.118E+01 0.369E+01 -.575E+01   -.662E-02 -.463E-01 -.182E-01   0.114E-02 -.829E-03 -.124E-03
   0.120E+02 -.676E+01 0.318E+01   -.118E+02 0.664E+01 -.324E+01   -.235E+00 0.125E+00 0.568E-01   -.703E-03 -.134E-03 -.408E-03
   0.441E+01 -.962E+01 0.629E+01   -.421E+01 0.961E+01 -.628E+01   -.202E+00 0.203E-01 -.152E-01   -.162E-03 -.942E-03 -.367E-03
   -.693E+01 -.375E+02 0.339E+02   0.132E+02 0.341E+02 -.331E+02   -.624E+01 0.339E+01 -.815E+00   -.315E-02 0.159E-02 -.134E-02
   -.519E+00 -.189E+02 0.155E+02   0.883E+00 0.180E+02 -.157E+02   -.376E+00 0.887E+00 0.224E+00   -.178E-02 0.256E-02 -.856E-03
   0.665E+01 -.348E+02 0.213E+02   -.130E+02 0.311E+02 -.201E+02   0.634E+01 0.369E+01 -.110E+01   0.227E-02 0.264E-02 -.222E-03
   0.653E+00 -.177E+02 0.106E+02   -.930E+00 0.167E+02 -.108E+02   0.284E+00 0.109E+01 0.231E+00   0.150E-02 0.195E-02 -.234E-03
   -.111E+02 -.110E+02 0.886E+01   0.107E+02 0.112E+02 -.900E+01   0.395E+00 -.139E+00 0.132E+00   0.102E-02 0.116E-02 -.263E-03
   -.412E+01 -.112E+02 0.748E+01   0.387E+01 0.114E+02 -.743E+01   0.260E+00 -.180E+00 -.548E-01   0.163E-03 -.255E-03 -.283E-03
   -.159E+01 -.372E+01 0.737E+01   0.152E+01 0.379E+01 -.740E+01   0.733E-01 -.782E-01 0.245E-01   -.105E-02 -.409E-03 -.257E-03
   -.166E+01 -.436E+01 0.744E+01   0.164E+01 0.442E+01 -.745E+01   0.186E-01 -.713E-01 0.839E-02   -.106E-02 0.380E-03 -.154E-03
   0.721E+00 -.267E+01 0.642E+01   -.732E+00 0.269E+01 -.645E+01   0.126E-01 -.299E-01 0.273E-01   0.544E-04 -.442E-03 -.219E-03
   -.116E+00 -.132E+01 0.615E+01   -.524E-02 0.130E+01 -.614E+01   0.123E+00 0.214E-01 -.169E-01   -.203E-03 0.414E-03 -.279E-03
   0.228E+01 -.218E+01 0.655E+01   -.227E+01 0.210E+01 -.657E+01   -.186E-01 0.763E-01 0.186E-01   0.106E-02 -.112E-02 -.194E-03
   0.237E+01 -.214E+01 0.705E+01   -.248E+01 0.201E+01 -.707E+01   0.111E+00 0.129E+00 0.176E-01   0.104E-02 -.511E-04 -.281E-03
   -.126E+01 -.643E+01 0.107E+02   0.179E+01 0.608E+01 -.108E+02   -.539E+00 0.352E+00 0.136E+00   -.991E-03 0.501E-03 -.521E-03
   0.164E+01 -.321E+01 0.803E+01   -.148E+01 0.294E+01 -.805E+01   -.167E+00 0.293E+00 0.187E-01   -.172E-03 -.562E-03 -.327E-03
   -.265E+01 -.805E+01 0.661E+01   0.274E+01 0.735E+01 -.623E+01   -.856E-01 0.697E+00 -.382E+00   0.196E-03 0.223E-02 -.525E-03
   -.372E+00 -.555E+01 0.721E+01   0.470E+00 0.505E+01 -.723E+01   -.978E-01 0.515E+00 0.217E-01   -.105E-04 0.112E-03 -.281E-03
   0.263E+01 -.797E+01 0.956E+01   -.318E+01 0.772E+01 -.966E+01   0.557E+00 0.251E+00 0.966E-01   0.859E-03 0.451E-03 -.163E-03
   -.196E+01 -.409E+01 0.828E+01   0.195E+01 0.392E+01 -.830E+01   0.221E-01 0.175E+00 0.209E-01   0.369E-03 0.514E-03 -.134E-03
   -.342E+01 -.679E+01 -.642E+03   0.529E+01 0.656E+01 0.624E+03   -.192E+01 0.235E+00 0.185E+02   0.970E-03 0.617E-03 0.165E-02
   0.911E+00 -.269E+00 -.176E+02   0.106E-12 0.348E-12 -.227E-12   -.911E+00 0.266E+00 0.176E+02   0.963E-03 0.214E-03 -.167E-01

 POSITION                                       TOTAL-FORCE (eV/Angst)
      7.43075     12.74244      7.46548         0.000298      0.002987      0.002723
      0.00172      1.41872      7.46688         0.002794     -0.006784      0.000767
      2.48262      0.02416      7.46317        -0.000555     -0.006787     -0.001774
      2.48312      1.44487      7.47342         0.004332     -0.006927     -0.003844
      4.95524      0.02947      7.46490        -0.002301     -0.005386     -0.004950
      4.95718      1.45220      7.47379         0.001657     -0.006728     -0.004563
      7.43191      0.00014      7.46710        -0.000243      0.002827     -0.000764
      7.43109      1.41920      7.46508         0.004836     -0.004676     -0.001270
      2.47844     12.72637      7.47451         0.003339      0.004536      0.000160
      9.90836      1.39964      7.46458        -0.001985      0.001604      0.001782
      4.95366     12.72056      7.47604        -0.000388      0.006663     -0.000007
     12.38213      1.39049      7.46516        -0.001077     -0.000884     -0.000286
     13.61823      2.10816      7.46660         0.002707      0.005378     -0.000774
     -1.24691      3.52965      7.47674        -0.005699     -0.012055     -0.000232
      1.24126      2.14310      7.47648        -0.009461     -0.008378     -0.004746
      1.24235      3.56509      7.49923        -0.008457     -0.013023     -0.007118
      3.72120      2.16913      7.48873        -0.003173     -0.005547     -0.004151
      3.72883      3.58658      7.53506         0.000633      0.005658      0.002212
      6.20439      2.15323      7.47216         0.001758      0.004606     -0.003247
      6.20851      3.57379      7.49476         0.010021     -0.006480      0.004054
      8.66660      2.11968      7.46628         0.000438      0.007755     -0.000104
      8.66768      3.53550      7.47553         0.005068     -0.002570     -0.001350
     11.14451      2.10284      7.46394         0.006528      0.000502      0.002057
     11.13791      3.52079      7.46612         0.001230      0.001787      0.000876
     12.37444      4.23420      7.47333         0.004629      0.001264      0.000185
     -2.48688      5.65783      7.48057        -0.009770     -0.000844      0.001906
     -0.01222      4.24456      7.50115        -0.006887     -0.005106     -0.002273
     -0.03636      5.66032      7.53013        -0.005870     -0.007109     -0.000991
      2.48513      4.30535      7.54476        -0.002015      0.001533     -0.001793
      2.43722      5.71667      7.63254         0.009918      0.007095      0.001745
      4.97302      4.31686      7.55862        -0.006132     -0.014094      0.019218
      4.99879      5.72846      7.67994         0.005741      0.007883      0.035405
      7.44882      4.24303      7.49404         0.005190     -0.014290      0.002193
      7.46984      5.64603      7.50975         0.004484      0.007371     -0.001202
      9.90301      4.23835      7.47128         0.003219      0.001569     -0.002676
      9.92310      5.65804      7.47372         0.008723      0.000612     -0.006728
     -3.71359      6.37270      7.47297         0.003219     -0.005371     -0.002511
     -3.71463      7.79445      7.47267        -0.003718      0.006255     -0.002124
     -1.26470      6.37264      7.50693        -0.010790      0.003133      0.004810
     -1.26541      7.79377      7.50768        -0.011765      0.002284      0.005306
      1.18483      6.36671      7.57750        -0.003618     -0.002881     -0.005859
      1.18412      7.79955      7.57732         0.000491      0.004183     -0.004746
      6.26111      6.35156      7.57710         0.001428     -0.008874      0.019217
      6.25958      7.78542      7.57400         0.002044      0.003549      0.013819
      8.69886      6.35881      7.48886         0.009112      0.002536     -0.009229
      8.69493      7.78214      7.49075         0.009306     -0.003661     -0.011852
     -4.94073      8.50361      7.47321         0.007872     -0.003624     -0.006314
     -4.94600      9.92727      7.46859         0.001555      0.002537     -0.001779
     -2.48751      8.50906      7.48015         0.000989     -0.006034      0.001543
     -2.48219      9.93041      7.47311        -0.002056      0.007952     -0.000335
     -0.03814      8.50720      7.53246        -0.014376      0.006424     -0.000630
     -0.01429      9.92353      7.50215        -0.006746      0.015473     -0.000724
      2.43211      8.45316      7.62765         0.009841     -0.003794      0.005441
      2.47523      9.86403      7.54195        -0.000770     -0.007169     -0.002279
      5.00171      8.42434      7.65240        -0.003303     -0.003169      0.024899
      4.95831      9.84331      7.55575        -0.003756      0.008252      0.010926
      7.47176      8.49822      7.51420         0.004653      0.000010     -0.007383
      7.44722      9.91531      7.49521         0.004648      0.013284     -0.003973
     -6.18100     10.63625      7.47175         0.002784      0.000214     -0.001126
     -6.18407     12.05469      7.46393        -0.000115     -0.007898      0.001127
     -3.71352     10.64270      7.46490         0.001951     -0.006614     -0.000157
     -3.71222     12.06563      7.46332         0.000967      0.004388     -0.001933
     -1.24629     10.64006      7.47711        -0.002915      0.000863      0.000301
     -1.24275     12.05789      7.46666         0.002690      0.001080     -0.002474
      1.23789     10.60448      7.49891        -0.012333      0.004186     -0.005911
      1.23956     12.02682      7.47698        -0.007635      0.019117     -0.003784
      3.71836     10.57709      7.53538        -0.000637     -0.007678     -0.003134
      3.71642     11.99784      7.49101         0.000260      0.015995     -0.002374
      6.19436     10.59114      7.50167         0.007161      0.000196     -0.001283
      6.19359     12.01747      7.47668         0.006465      0.001265     -0.000641
      3.67428      7.08426      8.33742        -0.016435     -0.000372     -0.025275
    total drift:                                0.000453     -0.002484      0.001719

  FREE ENERGIE OF THE ION-ELECTRON SYSTEM (eV)
  free  energy   TOTEN  =      -653.58356548 eV

  energy  without entropy=     -653.54642813  energy(sigma->0) =     -653.56499680

 d Force = 0.2956401E-03[ 0.138E-03, 0.453E-03]  d Energy = 0.2167273E-03 0.789E-04
 d Force =-0.1533985E+00[-0.153E+00,-0.153E+00]  d Ewald  =-0.1533984E+00-0.673E-07

 stress matrix after NEB project (eV)
     -2.20964      0.07021     -0.01323
      0.07021     -1.77987     -0.00031
     -0.01323     -0.00031     -3.50761
  FORCES: max atom, RMS     0.036723    0.012041
  FORCE total and by dimension    0.101456    0.035405
  Stress total and by dimension    4.512649    3.507613
 Conjugate gradient step on ions:
 trial-energy change:   -0.000217  1 .order   -0.000296   -0.000453   -0.000138
  (g-gl).g = 0.604E-03      g.g   = 0.600E-03  gl.gl    = 0.115E-02
 g(Force)  = 0.600E-03   g(Stress)= 0.000E+00 ortho     =-0.788E-05
 gamma     =   0.52463
 trial     =   0.76073
 opt step  =   1.09389  (harmonic =   1.09389) maximal distance =0.00206614
 next E    =  -653.583675   (d E  =  -0.00033)

 reached required accuracy - stopping structural energy minimisation