 vasp.5.4.4.18Apr17-6-g9f103f2a35 (build Oct 04 2021 15:34:47) complex

 executed on             LinuxIFC date 2023.04.04  15:04:16

 INCAR:
 POTCAR:    PAW_PBE C 08Apr2002
 POTCAR:    PAW_PBE Cr_pv 02Aug2007
 POTCAR:    PAW_PBE C 08Apr2002
   VRHFIN =C: s2p2

   TITEL  = PAW_PBE C 08Apr2002
   POMASS =   12.011; ZVAL   =    4.000    mass and valenz
   ENMAX  =  400.000; ENMIN  =  300.000 eV

   TITEL  = PAW_PBE Cr_pv 02Aug2007
   POMASS =   51.996; ZVAL   =   12.000    mass and valenz
   ENMAX  =  265.681; ENMIN  =  199.261 eV

  PAW_PBE C 08Apr2002                   :
  PAW_PBE Cr_pv 02Aug2007               :

 POSCAR: POSCAR-clean
  positions in cartesian coordinates
 exchange correlation table for  LEXCH =        8
   RHO(1)=    0.500       N(1)  =     2000
   RHO(2)=  100.500       N(2)  =     4000

 ion  position               nearest neighbor table
   1  0.000  1.000  0.498-   2 1.42  60 1.42  70 1.43
   2  0.056  0.111  0.498-   1 1.42  13 1.42  15 1.43
   3  0.168  0.002  0.498-   4 1.42  62 1.43  60 1.43
   4  0.224  0.113  0.498-   3 1.42  15 1.42  17 1.44
   5  0.334  0.002  0.498-   6 1.42  62 1.43  64 1.43
   6  0.390  0.113  0.498-   5 1.42  19 1.42  17 1.44
   7  0.500  1.000  0.498-   8 1.42  64 1.42  66 1.43
   8  0.556  0.111  0.498-   7 1.42  21 1.42  19 1.43
   9  0.666  0.998  0.498-  10 1.42  66 1.42  68 1.44
  10  0.722  0.109  0.498-   9 1.42  23 1.43  21 1.43
  11  0.832  0.998  0.498-  12 1.42  70 1.42  68 1.44
  12  0.888  0.109  0.498-  11 1.42  23 1.43  13 1.43
  13  0.999  0.165  0.498-  14 1.42   2 1.42  12 1.43
  14  0.054  0.277  0.499-  13 1.42  25 1.42  27 1.43
  15  0.167  0.168  0.498-  16 1.42   4 1.42   2 1.43
  16  0.223  0.280  0.500-  15 1.42  27 1.43  29 1.44
  17  0.335  0.170  0.499-  18 1.42   4 1.44   6 1.44
  18  0.391  0.281  0.503-  17 1.42  31 1.44  29 1.44
  19  0.501  0.168  0.498-  20 1.42   6 1.42   8 1.43
  20  0.557  0.280  0.500-  19 1.42  33 1.43  31 1.44
  21  0.667  0.165  0.498-  22 1.42   8 1.42  10 1.43
  22  0.723  0.277  0.498-  21 1.42  35 1.42  33 1.43
  23  0.833  0.165  0.498-  24 1.42  10 1.43  12 1.43
  24  0.888  0.276  0.498-  23 1.42  25 1.42  35 1.43
  25  0.999  0.332  0.498-  14 1.42  26 1.42  24 1.42
  26  0.054  0.444  0.499-  39 1.42  37 1.42  25 1.42
  27  0.165  0.333  0.500-  28 1.42  16 1.43  14 1.43
  28  0.219  0.444  0.502-  41 1.41  27 1.42  39 1.42
  29  0.335  0.338  0.503-  30 1.41  18 1.44  16 1.44
  30  0.387  0.448  0.510-  41 1.41  29 1.41  71 2.00
  31  0.503  0.338  0.504-  32 1.41  18 1.44  20 1.44
  32  0.562  0.448  0.510-  43 1.41  31 1.41  71 2.00
  33  0.668  0.333  0.500-  34 1.42  20 1.43  22 1.43
  34  0.725  0.444  0.501-  43 1.41  33 1.42  45 1.42
  35  0.833  0.332  0.498-  22 1.42  36 1.42  24 1.43
  36  0.890  0.444  0.498-  45 1.42  37 1.42  35 1.42
  37  0.000  0.500  0.498-  36 1.42  26 1.42  38 1.42
  38  0.056  0.611  0.498-  47 1.42  49 1.42  37 1.42
  39  0.165  0.500  0.500-  26 1.42  28 1.42  40 1.42
  40  0.220  0.611  0.500-  49 1.42  51 1.42  39 1.42
  41  0.329  0.499  0.505-  30 1.41  28 1.41  42 1.44
  42  0.385  0.612  0.505-  53 1.41  51 1.41  41 1.44
  43  0.671  0.499  0.505-  32 1.41  34 1.41  44 1.44
  44  0.727  0.612  0.505-  55 1.41  57 1.41  43 1.44
  45  0.836  0.500  0.499-  36 1.42  34 1.42  46 1.42
  46  0.891  0.611  0.499-  47 1.42  57 1.42  45 1.42
  47  0.001  0.667  0.498-  46 1.42  38 1.42  48 1.42
  48  0.057  0.779  0.498-  59 1.42  47 1.42  61 1.43
  49  0.166  0.667  0.499-  40 1.42  38 1.42  50 1.42
  50  0.222  0.779  0.498-  63 1.42  49 1.42  61 1.42
  51  0.331  0.667  0.502-  42 1.41  52 1.42  40 1.42
  52  0.388  0.778  0.500-  51 1.42  65 1.43  63 1.43
  53  0.494  0.663  0.510-  42 1.41  54 1.41  71 2.00
  54  0.553  0.773  0.503-  53 1.41  67 1.44  65 1.44
  55  0.669  0.663  0.510-  44 1.41  56 1.41  71 2.00
  56  0.721  0.773  0.504-  55 1.41  67 1.44  69 1.44
  57  0.837  0.667  0.501-  44 1.41  58 1.42  46 1.42
  58  0.891  0.778  0.500-  57 1.42  69 1.42  59 1.43
  59  0.002  0.835  0.498-  60 1.42  48 1.42  58 1.43
  60  0.057  0.946  0.498-  59 1.42   1 1.42   3 1.43
  61  0.168  0.835  0.498-  62 1.42  50 1.42  48 1.43
  62  0.223  0.946  0.498-  61 1.42   3 1.43   5 1.43
  63  0.333  0.835  0.499-  64 1.42  50 1.42  52 1.43
  64  0.389  0.946  0.498-  63 1.42   7 1.42   5 1.43
  65  0.499  0.832  0.500-  66 1.42  52 1.43  54 1.44
  66  0.555  0.943  0.498-  65 1.42   9 1.42   7 1.43
  67  0.665  0.830  0.503-  68 1.42  56 1.44  54 1.44
  68  0.721  0.941  0.499-  67 1.42   9 1.44  11 1.44
  69  0.833  0.832  0.500-  70 1.42  58 1.42  56 1.44
  70  0.889  0.943  0.498-  69 1.42  11 1.42   1 1.43
  71  0.528  0.556  0.554-  55 2.00  32 2.00  53 2.00  30 2.00

IMPORTANT INFORMATION: All symmetrisations will be switched off!
NOSYMM: (Re-)initialisation of all symmetry stuff for point group C_1.

 KPOINTS: K-Points

Automatic generation of k-mesh.
Space group operators:
 irot       det(A)        alpha          n_x          n_y          n_z        tau_x        tau_y        tau_z
    1     1.000000     0.000000     1.000000     0.000000     0.000000     0.000000     0.000000     0.000000

 Subroutine IBZKPT returns following result:

 Found      5 irreducible k-points:

 Following reciprocal coordinates:
            Coordinates               Weight
  0.000000  0.000000  0.000000      1.000000
  0.333333  0.000000  0.000000      2.000000
  0.000000  0.333333  0.000000      2.000000
  0.333333  0.333333  0.000000      2.000000
 -0.333333  0.333333  0.000000      2.000000

 Following cartesian coordinates:
            Coordinates               Weight
  0.000000  0.000000  0.000000      1.000000
  0.022404  0.013059  0.000000      2.000000
 -0.000000  0.026119  0.000000      2.000000
  0.022404  0.039178  0.000000      2.000000
 -0.022404  0.013059  0.000000      2.000000

 TETIRR: Found     24 inequivalent tetrahedra from       54

 SYSTEM =  unknown system
 POSCAR =  POSCAR-clean

 Startparameter for this run:
   NWRITE =      2    write-flag & timer
   PREC   = normal    normal or accurate (medium, high low for compatibility)
   ISTART =      0    job   : 0-new  1-cont  2-samecut
   ICHARG =      2    charge: 1-file 2-atom 10-const
   ISPIN  =      2    spin polarized calculation?
   LNONCOLLINEAR =      F non collinear calculations
   LSORBIT =      F    spin-orbit coupling
   INIWAV =      1    electr: 0-lowe 1-rand  2-diag
   LASPH  =      F    aspherical Exc in radial PAW
   METAGGA=      F    non-selfconsistent MetaGGA calc.

 Electronic Relaxation 1
   ENCUT  =  440.0 eV  32.34 Ry    5.69 a.u.  25.45 25.27 25.66*2*pi/ulx,y,z
   ENINI  =  440.0     initial cutoff
   ENAUG  =  644.9 eV  augmentation charge cutoff
   NELM   =    100;   NELMIN=  2; NELMDL= -5     # of ELM steps
   EDIFF  = 0.1E-03   stopping-criterion for ELM
   LREAL  =      F    real-space projection
   NLSPLINE    = F    spline interpolate recip. space projectors
   LCOMPAT=      F    compatible to vasp.4.4
   GGA_COMPAT  = T    GGA compatible to vasp.4.4-vasp.4.6
   LMAXPAW     = -100 max onsite density
   LMAXMIX     =    2 max onsite mixed and CHGCAR
   VOSKOWN=      0    Vosko Wilk Nusair interpolation
   ROPT   =    0.00000   0.00000
 Ionic relaxation
   EDIFFG = -.1E-01   stopping-criterion for IOM
   NSW    =      0    number of steps for IOM
   NBLOCK =      1;   KBLOCK =      1    inner block; outer block
   IBRION =     -1    ionic relax: 0-MD 1-quasi-New 2-CG
   NFREE  =      0    steps in history (QN), initial steepest desc. (CG)
   ISIF   =      2    stress and relaxation
   IWAVPR =     10    prediction:  0-non 1-charg 2-wave 3-comb
   ISYM   =      0    0-nonsym 1-usesym 2-fastsym
   LCORR  =      T    Harris-Foulkes like correction to forces

   POTIM  = 0.5000    time-step for ionic-motion
   TEIN   =    0.0    initial temperature
   TEBEG  =    0.0;   TEEND  =   0.0 temperature during run
   SMASS  =  -3.00    Nose mass-parameter (am)
   estimated Nose-frequenzy (Omega)   =  0.10E-29 period in steps =****** mass=  -0.506E-26a.u.
   SCALEE = 1.0000    scale energy and forces
   NPACO  =    256;   APACO  = 16.0  distance and # of slots for P.C.
   PSTRESS=    0.0 pullay stress

  Mass of Ions in am
   POMASS =  12.01 52.00
  Ionic Valenz
   ZVAL   =   4.00 12.00
  Atomic Wigner-Seitz radii
  virtual crystal weights
   VCA    =   1.00  1.00
   NELECT =     292.0000    total number of electrons
   NUPDOWN=      -1.0000    fix difference up-down

 DOS related values:
   EMIN   = -14.00;   EMAX   =  6.00  energy-range for DOS
   EFERMI =   0.00
   ISMEAR =    -5;   SIGMA  =   0.20  broadening in eV -4-tet -1-fermi 0-gaus

 Electronic relaxation 2 (details)
   IALGO  =     38    algorithm
   LDIAG  =      T    sub-space diagonalisation (order eigenvalues)
   LSUBROT=      F    optimize rotation matrix (better conditioning)
   TURBO    =      0    0=normal 1=particle mesh
   IRESTART =      0    0=no restart 2=restart with 2 vectors
   NREBOOT  =      0    no. of reboots
   NMIN     =      0    reboot dimension
   EREF     =   0.00    reference energy to select bands
   IMIX   =      4    mixing-type and parameters
     AMIX     =   0.25;   BMIX     =  0.00
     AMIX_MAG =   1.00;   BMIX_MAG =  0.00
     AMIN     =   0.10
     WC   =   100.;   INIMIX=   1;  MIXPRE=   1;  MAXMIX= -45

 Intra band minimization:
   WEIMIN = 0.0000     energy-eigenvalue tresh-hold
   EBREAK =  0.14E-06  absolut break condition
   DEPER  =   0.30     relativ break condition

   TIME   =   0.40     timestep for ELM

  volume/ion in A,a.u.               =      40.12       270.71
  Fermi-wavevector in a.u.,A,eV,Ry     =   0.766205  1.447918  7.987579  0.587070
  Thomas-Fermi vector in A             =   1.866493

 Write flags
   LWAVE        =      F    write WAVECAR
   LDOWNSAMPLE  =      F    k-point downsampling of WAVECAR
   LCHARG       =      F    write CHGCAR
   LVTOT        =      F    write LOCPOT, total local potential
   LVHAR        =      F    write LOCPOT, Hartree potential only
   LELF         =      F    write electronic localiz. function (ELF)
   LORBIT       =     11    0 simple, 1 ext, 2 COOP (PROOUT), +10 PAW based schemes

 Dipole corrections
   LMONO  =      F    monopole corrections only (constant potential shift)
   LDIPOL =      F    correct potential (dipole corrections)
   IDIPOL =      0    1-x, 2-y, 3-z, 4-all directions
   EPSILON=  1.0000000 bulk dielectric constant

 Exchange correlation treatment:
   GGA     =    --    GGA type
   VOSKOWN=      0    Vosko Wilk Nusair interpolation
   LHFCALC =     F    Hartree Fock is set to
   LHFONE  =     F    Hartree Fock one center treatment
   AEXX    =    0.0000 exact exchange contribution

 Linear response parameters
   LEPSILON=     F    determine dielectric tensor
   LRPA    =     F    only Hartree local field effects (RPA)
   LNABLA  =     F    use nabla operator in PAW spheres
   LVEL    =     F    velocity operator in full k-point grid
   LINTERFAST=   F  fast interpolation
   KINTER  =     0    interpolate to denser k-point grid
   CSHIFT  =0.1000    complex shift for real part using Kramers Kronig
   OMEGAMAX=  -1.0    maximum frequency
[...]
   0.288E-01 0.552E+01 0.573E+01   -.231E-01 -.488E+01 -.527E+01   0.193E-02 -.529E+00 -.436E+00   -.668E-02 -.400E-01 -.263E-01
   -.183E+01 0.479E+01 0.828E+01   0.180E+01 -.472E+01 -.830E+01   0.339E-01 -.827E-01 0.244E-01   -.415E-02 -.159E-01 -.950E-02
   0.211E+01 0.655E+01 0.102E+02   -.251E+01 -.633E+01 -.103E+02   0.377E+00 -.133E+00 0.132E+00   0.163E-01 -.468E-01 -.170E-01
   -.173E+01 0.405E+01 0.784E+01   0.173E+01 -.415E+01 -.784E+01   -.162E-01 0.557E-01 0.120E-01   0.288E-01 0.291E-01 -.543E-02
   -.159E+01 0.288E+01 0.791E+01   0.152E+01 -.290E+01 -.794E+01   0.285E-01 0.821E-01 0.264E-01   0.424E-01 -.348E-01 -.706E-02
   -.169E-01 0.263E+01 0.586E+01   0.226E-01 -.265E+01 -.584E+01   0.351E-03 0.525E-01 -.171E-01   -.291E-02 -.365E-01 -.486E-02
   0.151E-02 0.189E+01 0.584E+01   -.121E-02 -.197E+01 -.586E+01   -.117E-02 0.571E-01 0.215E-01   -.280E-02 0.454E-01 -.448E-02
   0.166E+01 0.308E+01 0.493E+01   -.160E+01 -.315E+01 -.491E+01   -.305E-01 0.305E-01 -.206E-01   -.523E-02 0.278E-01 -.550E-02
   0.330E+01 0.417E+01 0.516E+01   -.330E+01 -.414E+01 -.520E+01   0.930E-03 0.224E-01 0.292E-01   -.890E-02 -.462E-01 -.648E-02
   0.399E+01 0.101E+02 0.678E+01   -.379E+01 -.101E+02 -.674E+01   -.185E+00 0.792E-01 -.329E-01   -.244E-01 -.660E-01 -.153E-01
   0.111E+02 0.594E+01 0.619E+01   -.110E+02 -.597E+01 -.627E+01   -.688E-01 -.151E-01 0.124E+00   -.446E-01 0.159E-01 -.216E-01
   -.208E+01 0.178E+02 0.122E+02   0.239E+01 -.171E+02 -.124E+02   -.202E+00 -.698E+00 0.304E+00   -.568E-01 -.907E-01 -.517E-01
   -.887E+01 0.333E+02 0.232E+02   0.150E+02 -.299E+02 -.222E+02   -.567E+01 -.313E+01 -.908E+00   -.145E+00 -.147E+00 -.683E-01
   0.209E+01 0.178E+02 0.110E+02   -.240E+01 -.171E+02 -.112E+02   0.205E+00 -.701E+00 0.297E+00   0.490E-01 -.771E-01 -.371E-01
   0.859E+01 0.335E+02 0.205E+02   -.147E+02 -.300E+02 -.196E+02   0.566E+01 -.312E+01 -.970E+00   0.159E+00 -.155E+00 -.448E-01
   -.405E+01 0.998E+01 0.777E+01   0.384E+01 -.100E+02 -.773E+01   0.182E+00 0.794E-01 -.346E-01   0.399E-01 -.537E-01 -.122E-01
   -.110E+02 0.597E+01 0.780E+01   0.109E+02 -.601E+01 -.789E+01   0.688E-01 -.174E-01 0.133E+00   0.552E-01 0.364E-01 -.203E-01
   -.169E+01 0.310E+01 0.662E+01   0.164E+01 -.316E+01 -.659E+01   0.366E-01 0.341E-01 -.153E-01   -.113E-02 0.115E-01 -.712E-02
   -.327E+01 0.418E+01 0.743E+01   0.328E+01 -.417E+01 -.746E+01   0.651E-02 0.218E-01 0.456E-01   -.575E-02 -.188E-01 -.944E-02
   -.403E-01 0.557E+00 0.593E+01   0.494E-01 -.491E+00 -.594E+01   0.408E-02 -.286E-01 0.109E-01   -.822E-02 -.477E-01 -.647E-02
   -.446E-01 -.567E+00 0.595E+01   0.535E-01 0.502E+00 -.596E+01   0.398E-02 0.257E-01 0.110E-01   -.825E-02 0.478E-01 -.645E-02
   0.504E+01 0.407E+00 0.392E+01   -.496E+01 -.415E+00 -.386E+01   0.643E-02 -.131E-02 -.477E-01   -.537E-01 0.241E-02 -.121E-01
   0.505E+01 -.406E+00 0.395E+01   -.497E+01 0.414E+00 -.390E+01   0.628E-02 0.197E-03 -.472E-01   -.537E-01 -.243E-02 -.121E-01
   0.243E+02 0.769E+01 0.141E+02   -.237E+02 -.801E+01 -.146E+02   -.512E+00 0.496E+00 0.676E+00   -.106E+00 0.334E-02 -.406E-01
   0.243E+02 -.765E+01 0.140E+02   -.237E+02 0.797E+01 -.146E+02   -.511E+00 -.494E+00 0.675E+00   -.105E+00 -.252E-02 -.409E-01
   -.242E+02 0.760E+01 0.132E+02   0.235E+02 -.791E+01 -.138E+02   0.510E+00 0.491E+00 0.634E+00   0.124E+00 -.597E-02 -.162E-01
   -.242E+02 -.757E+01 0.132E+02   0.235E+02 0.788E+01 -.138E+02   0.509E+00 -.489E+00 0.634E+00   0.124E+00 0.604E-02 -.159E-01
   -.500E+01 0.382E+00 0.696E+01   0.493E+01 -.421E+00 -.690E+01   0.178E-04 -.103E-01 -.316E-01   0.463E-01 0.339E-01 -.182E-01
   -.500E+01 -.364E+00 0.695E+01   0.493E+01 0.401E+00 -.690E+01   -.401E-03 0.989E-02 -.318E-01   0.464E-01 -.335E-01 -.183E-01
   -.329E+01 -.417E+01 0.743E+01   0.329E+01 0.416E+01 -.746E+01   0.836E-02 -.226E-01 0.452E-01   -.596E-02 0.189E-01 -.945E-02
   -.171E+01 -.312E+01 0.663E+01   0.166E+01 0.318E+01 -.661E+01   0.366E-01 -.351E-01 -.151E-01   -.992E-03 -.116E-01 -.712E-02
   0.330E+01 -.416E+01 0.522E+01   -.330E+01 0.413E+01 -.526E+01   0.486E-03 -.244E-01 0.296E-01   -.897E-02 0.464E-01 -.644E-02
   0.166E+01 -.310E+01 0.498E+01   -.160E+01 0.318E+01 -.496E+01   -.305E-01 -.321E-01 -.203E-01   -.524E-02 -.277E-01 -.543E-02
   0.111E+02 -.593E+01 0.621E+01   -.110E+02 0.596E+01 -.629E+01   -.698E-01 0.149E-01 0.124E+00   -.441E-01 -.158E-01 -.216E-01
   0.402E+01 -.101E+02 0.681E+01   -.382E+01 0.101E+02 -.677E+01   -.187E+00 -.783E-01 -.326E-01   -.245E-01 0.658E-01 -.153E-01
   -.882E+01 -.333E+02 0.232E+02   0.149E+02 0.299E+02 -.222E+02   -.567E+01 0.313E+01 -.908E+00   -.145E+00 0.147E+00 -.690E-01
   -.208E+01 -.178E+02 0.122E+02   0.239E+01 0.171E+02 -.124E+02   -.203E+00 0.700E+00 0.304E+00   -.566E-01 0.897E-01 -.524E-01
   0.854E+01 -.335E+02 0.205E+02   -.147E+02 0.300E+02 -.196E+02   0.566E+01 0.312E+01 -.971E+00   0.157E+00 0.154E+00 -.429E-01
   0.209E+01 -.178E+02 0.110E+02   -.239E+01 0.171E+02 -.112E+02   0.205E+00 0.700E+00 0.297E+00   0.488E-01 0.767E-01 -.357E-01
   -.110E+02 -.595E+01 0.780E+01   0.109E+02 0.600E+01 -.789E+01   0.680E-01 0.170E-01 0.133E+00   0.552E-01 -.362E-01 -.203E-01
   -.406E+01 -.997E+01 0.777E+01   0.385E+01 0.100E+02 -.773E+01   0.183E+00 -.775E-01 -.350E-01   0.400E-01 0.533E-01 -.121E-01
   -.161E+01 -.289E+01 0.790E+01   0.155E+01 0.291E+01 -.793E+01   0.307E-01 -.811E-01 0.263E-01   0.425E-01 0.347E-01 -.709E-02
   -.175E+01 -.407E+01 0.782E+01   0.176E+01 0.418E+01 -.783E+01   -.154E-01 -.563E-01 0.117E-01   0.287E-01 -.291E-01 -.534E-02
   0.372E-02 -.187E+01 0.588E+01   -.307E-02 0.195E+01 -.590E+01   -.314E-03 -.575E-01 0.220E-01   -.284E-02 -.451E-01 -.445E-02
   -.195E-01 -.267E+01 0.585E+01   0.243E-01 0.269E+01 -.583E+01   -.251E-03 -.515E-01 -.176E-01   -.265E-02 0.363E-01 -.486E-02
   0.163E+01 -.284E+01 0.620E+01   -.157E+01 0.286E+01 -.621E+01   -.273E-01 -.745E-01 0.159E-01   -.375E-01 0.158E-01 -.729E-02
   0.170E+01 -.407E+01 0.674E+01   -.171E+01 0.416E+01 -.675E+01   0.141E-01 -.558E-01 0.111E-01   -.255E-01 -.120E-01 -.490E-02
   -.203E+01 -.653E+01 0.106E+02   0.243E+01 0.629E+01 -.107E+02   -.376E+00 0.131E+00 0.136E+00   -.110E-01 0.684E-01 -.242E-01
   0.184E+01 -.476E+01 0.878E+01   -.182E+01 0.471E+01 -.880E+01   -.398E-01 0.887E-01 0.280E-01   0.111E-01 -.824E-02 -.889E-02
   0.357E-01 -.553E+01 0.576E+01   -.291E-01 0.489E+01 -.530E+01   0.259E-02 0.528E+00 -.435E+00   -.694E-02 0.394E-01 -.259E-01
   0.361E-02 -.647E+01 0.735E+01   0.348E-02 0.615E+01 -.738E+01   -.180E-02 0.334E+00 0.259E-01   -.835E-02 0.743E-01 -.116E-01
   0.208E+01 -.655E+01 0.102E+02   -.248E+01 0.632E+01 -.103E+02   0.376E+00 0.132E+00 0.132E+00   0.163E-01 0.468E-01 -.162E-01
   -.186E+01 -.479E+01 0.832E+01   0.182E+01 0.472E+01 -.834E+01   0.361E-01 0.830E-01 0.248E-01   -.386E-02 0.159E-01 -.887E-02
   0.129E+00 0.869E-01 -.615E+03   -.996E-01 -.960E-01 0.597E+03   -.565E-01 -.384E-02 0.186E+02   0.116E-01 0.890E-02 -.706E+00
   0.149E-01 -.494E-02 -.173E+02   -.635E-13 -.121E-12 0.341E-12   -.566E-01 -.557E-02 0.192E+02   0.388E-01 0.656E-02 -.183E+01

 POSITION                                       TOTAL-FORCE (eV/Angst)
     -7.43646     12.76132      7.46502        -0.010061      0.000121     -0.000775
      0.00099      1.42036      7.46622         0.012317      0.002664     -0.001003
      2.48437      0.02688      7.46310        -0.018684     -0.047634      0.001422
      2.48227      1.44777      7.47377         0.021112      0.039970     -0.000969
      4.95879      0.02654      7.46659         0.011493     -0.045270     -0.002198
      4.96101      1.44747      7.47628        -0.021216      0.040601     -0.004936
      0.00117     12.76085      7.46635         0.012377     -0.002186     -0.001426
      7.44214      1.41989      7.46514        -0.014886      0.000340     -0.000724
      2.48235     12.73346      7.47377         0.021118     -0.039040     -0.001191
      9.92363      1.39216      7.46307        -0.017595      0.048610      0.001738
      4.96090     12.73378      7.47615        -0.020731     -0.038880     -0.005053
     12.39788      1.39254      7.46652         0.011100      0.046990     -0.002167
     13.63355      2.11217      7.46766        -0.013960     -0.022028     -0.001047
     -1.25019      3.53094      7.47806        -0.003311      0.030346     -0.008691
      1.23958      2.14491      7.47515         0.000624     -0.027194     -0.000591
      1.23571      3.56801      7.49964         0.011840      0.047428      0.020462
      3.72168      2.17339      7.49118        -0.002285     -0.078532     -0.013849
      3.72158      3.59155      7.53825         0.000952      0.083425     -0.002286
      6.20371      2.14448      7.47630        -0.006689     -0.025898     -0.003726
      6.20724      3.56761      7.49982        -0.010908      0.046295      0.016023
      8.68780      2.11158      7.46280         0.014959     -0.017716      0.002343
      8.69275      3.53052      7.47044         0.003763      0.034093     -0.003607
     11.16058      2.10405      7.46475         0.003142     -0.009722     -0.004810
     11.16040      3.52514      7.46701        -0.003621      0.018121     -0.004982
     12.39298      4.24003      7.47577         0.019611     -0.015957     -0.006396
     -2.49196      5.66417      7.48271        -0.002689      0.008967     -0.011741
     -0.01673      4.24835      7.50018        -0.009752     -0.007160     -0.006984
     -0.04352      5.66418      7.52478         0.003601     -0.028935      0.023485
      2.47399      4.31025      7.55085         0.062625     -0.078147      0.015647
      2.42231      5.72100      7.64380         0.318422      0.176301     -0.034428
      4.96927      4.30993      7.55402        -0.064086     -0.076296      0.008952
      5.02124      5.72056      7.64976        -0.322516      0.173580     -0.039995
      7.45930      4.24802      7.49456         0.013712     -0.002397     -0.005611
      7.48582      5.66404      7.51714        -0.002995     -0.031445      0.023797
      9.92757      4.23984      7.46873        -0.012519     -0.017567      0.000850
      9.93388      5.66404      7.47379         0.002357      0.012999     -0.001314
     -3.71834      6.37983      7.47526         0.005101     -0.011757     -0.004273
     -3.71835      7.80163      7.47518         0.004750      0.010149     -0.004234
     -1.27061      6.37928      7.50484         0.024419     -0.008152     -0.007078
     -1.27059      7.80210      7.50472         0.024178      0.007413     -0.006655
      1.17778      6.37139      7.57719         0.026743      0.169306      0.039480
      1.17776      7.80982      7.57721         0.026896     -0.170121      0.038601
      6.26517      6.37139      7.57758        -0.026131      0.169523      0.028592
      6.26519      7.80991      7.57758        -0.027578     -0.167961      0.028413
      8.71254      6.37940      7.49227        -0.016458     -0.017277      0.003148
      8.71253      7.80207      7.49226        -0.017583      0.015739      0.003100
     -4.94454      8.51739      7.47374         0.006125     -0.013012     -0.001720
     -4.95086      9.94157      7.46864        -0.013188      0.017010      0.001009
     -2.49192      8.51726      7.48251        -0.003305     -0.011263     -0.011356
     -2.48528      9.94146      7.47556         0.019706      0.015626     -0.006136
     -0.04344      8.51709      7.52469         0.001189      0.028710      0.023606
     -0.01659      9.93289      7.50008        -0.012402      0.008411     -0.006745
      2.42223      8.46029      7.64381         0.321063     -0.177681     -0.034498
      2.47406      9.87094      7.55082         0.062137      0.080559      0.015291
      5.02127      8.46081      7.64974        -0.321165     -0.174278     -0.041660
      4.96926      9.87139      7.55392        -0.064363      0.075986      0.008972
      7.48578      8.51733      7.51713        -0.004134      0.029897      0.024087
      7.45917      9.93330      7.49453         0.014179      0.004680     -0.005923
     -6.18578     10.65076      7.47041         0.007142     -0.031735     -0.003694
     -6.19072     12.06970      7.46279         0.015592      0.017723      0.002003
     -3.71797     10.65624      7.46686        -0.002448     -0.019145     -0.004481
     -3.71775     12.07725      7.46475         0.001937      0.011898     -0.005201
     -1.25007     10.65037      7.47797        -0.003743     -0.031236     -0.008778
     -1.24461     12.06922      7.46772        -0.014419      0.021131     -0.001092
      1.23584     10.61318      7.49961         0.010722     -0.045675      0.020549
      1.23974     12.03627      7.47522        -0.001225      0.027378     -0.000846
      3.72156     10.58970      7.53815         0.002329     -0.084329     -0.001907
      3.72167     12.00784      7.49110        -0.003049      0.079239     -0.013930
      6.20714     10.61372      7.49970        -0.010839     -0.048205      0.016256
      6.20350     12.03678      7.47613        -0.004150      0.026686     -0.003453
      3.72077      7.09090      8.31109        -0.014649     -0.004085     -0.023661
    total drift:                               -0.002820     -0.003941      0.055982

  FREE ENERGIE OF THE ION-ELECTRON SYSTEM (eV)
  free  energy   TOTEN  =      -654.61251811 eV

  energy  without entropy=     -654.61251811  energy(sigma->0) =     -654.61251811

 total charge

[...]

 magnetization (x)

# of ion       s       p       d       tot
    1        0.000   0.001   0.000   0.001
    2        0.000   0.001   0.000   0.001
    3       -0.000   0.000   0.000  -0.000
    4        0.000   0.001   0.000   0.001
    5       -0.000  -0.000   0.000  -0.001
    6       -0.000   0.001   0.000   0.001
    7        0.000   0.001   0.000   0.001
    8        0.000   0.001   0.000   0.001
    9        0.000   0.001   0.000   0.001
   10       -0.000   0.000   0.000  -0.000
   11       -0.000   0.001   0.000   0.001
   12       -0.000  -0.000   0.000  -0.001
   13       -0.000   0.000   0.000   0.000
   14       -0.000   0.000   0.000   0.000
   15       -0.000  -0.001   0.000  -0.001
   16        0.000   0.001   0.000   0.001
   17        0.000   0.000   0.000   0.000
   18        0.000   0.004   0.000   0.004
   19       -0.000  -0.001   0.000  -0.001
   20        0.000   0.001   0.000   0.001
   21       -0.000  -0.000   0.000  -0.001
   22       -0.000  -0.000   0.000  -0.000
   23        0.000   0.001   0.000   0.002
   24        0.000   0.001   0.000   0.001
   25       -0.000  -0.001   0.000  -0.001
   26       -0.000   0.000   0.000   0.000
   27        0.000   0.000   0.000   0.000
   28        0.000   0.002   0.000   0.003
   29       -0.000  -0.000   0.000  -0.001
   30        0.001   0.010   0.000   0.011
   31       -0.000  -0.001   0.000  -0.001
   32        0.001   0.009   0.000   0.011
   33        0.000   0.000   0.000   0.000
   34        0.000   0.002   0.000   0.003
   35       -0.000  -0.001   0.000  -0.001
   36        0.000   0.001   0.000   0.001
   37        0.000   0.001   0.000   0.002
   38        0.000   0.001   0.000   0.002
   39       -0.000  -0.001   0.000  -0.001
   40       -0.000  -0.001   0.000  -0.001
   41       -0.000  -0.003   0.000  -0.003
   42       -0.000  -0.003   0.000  -0.003
   43       -0.000  -0.002   0.000  -0.002
   44       -0.000  -0.002   0.000  -0.002
   45       -0.000  -0.001   0.000  -0.001
   46       -0.000  -0.001   0.000  -0.001
   47        0.000   0.001   0.000   0.001
   48       -0.000  -0.001   0.000  -0.001
   49       -0.000   0.000   0.000   0.000
   50       -0.000  -0.001   0.000  -0.001
   51        0.000   0.002   0.000   0.003
   52        0.000   0.000   0.000   0.000
   53        0.001   0.010   0.000   0.011
   54       -0.000  -0.000   0.000  -0.001
   55        0.001   0.009   0.000   0.011
   56       -0.000  -0.001   0.000  -0.001
   57        0.000   0.002   0.000   0.003
   58        0.000   0.000   0.000   0.000
   59       -0.000  -0.000   0.000  -0.000
   60       -0.000  -0.000   0.000  -0.001
   61        0.000   0.001   0.000   0.001
   62        0.000   0.001   0.000   0.002
   63       -0.000   0.000   0.000   0.000
   64       -0.000   0.000   0.000   0.000
   65        0.000   0.001   0.000   0.001
   66       -0.000  -0.001   0.000  -0.001
   67        0.000   0.004   0.000   0.004
   68        0.000   0.000   0.000   0.000
   69        0.000   0.001   0.000   0.001
   70       -0.000  -0.001   0.000  -0.001
   71        0.010  -0.001  -0.176  -0.166
tot          0.015   0.053  -0.176  -0.108

 BZINTS: Fermi energy: -2.359968;292.000000 electrons
         Band energy:***********;  BLOECHL correction: -0.020284