 vasp.5.4.4.18Apr17-6-g9f103f2a35 (build Nov  8 2022 18:58:45) complex
 executed on             LinuxGNU date 2023.04.13  15:54:37

 INCAR:
 POTCAR:    PAW_PBE C 08Apr2002
 POTCAR:    PAW_PBE N 08Apr2002
 POTCAR:    PAW_PBE Ge_d 03Jul2007
 POTCAR:    PAW_PBE C 08Apr2002
 POTCAR:    PAW_PBE O 08Apr2002
 POTCAR:    PAW_PBE C 08Apr2002
   VRHFIN =C: s2p2

   TITEL  = PAW_PBE C 08Apr2002
   POMASS =   12.011; ZVAL   =    4.000    mass and valenz
   ENMAX  =  400.000; ENMIN  =  300.000 eV

[...]

   TITEL  = PAW_PBE Ge_d 03Jul2007
   POMASS =   72.610; ZVAL   =   14.000    mass and valenz
   ENMAX  =  310.294; ENMIN  =  232.720 eV

[...]

   TITEL  = PAW_PBE O 08Apr2002
   POMASS =   16.000; ZVAL   =    6.000    mass and valenz
   ENMAX  =  400.000; ENMIN  =  300.000 eV

  PAW_PBE C 08Apr2002                   :
  PAW_PBE N 08Apr2002                   :
  PAW_PBE Ge_d 03Jul2007                :
  PAW_PBE C 08Apr2002                   :
  PAW_PBE O 08Apr2002                   :

 POSCAR: POSCAR-c3n4
  positions in cartesian coordinates
 exchange correlation table for  LEXCH =        8
   RHO(1)=    0.500       N(1)  =     2000
   RHO(2)=  100.500       N(2)  =     4000

 ion  position               nearest neighbor table
   1  0.106  0.214  0.436-  26 1.18  46 1.18  25 1.24   6 1.99  16 1.99
   2  0.288  0.399  0.443-  29 1.16  35 1.22  25 1.26   5 2.01  10 2.05
   3  0.104  0.392  0.437-  44 1.16  39 1.21  25 1.26  17 2.00  12 2.04
   4  0.447  0.064  0.516-  30 1.16  27 1.18  48 1.24  13 1.99   8 1.99
   5  0.453  0.401  0.422-  28 1.17  29 1.18  56 1.25  15 1.99   2 2.01
   6  0.112  0.053  0.459-  26 1.16  31 1.17  32 1.23   9 1.98   1 1.99
   7  0.096  0.712  0.494-  54 1.17  34 1.19  33 1.24  12 1.97  22 2.00
   8  0.284  0.890  0.511-  27 1.18  37 1.19  33 1.25   4 1.99  11 2.00
   9  0.109  0.895  0.508-  31 1.17  52 1.18  33 1.26   6 1.98  23 1.99
  10  0.448  0.548  0.512-  38 1.17  56 1.19  35 1.20  19 1.98   2 2.05  57 2.40
  11  0.445  0.885  0.499-  37 1.18  36 1.18  48 1.22  21 2.00   8 2.00
  12  0.087  0.542  0.491-  34 1.16  40 1.18  39 1.19   7 1.97   3 2.04  57 2.41
  13  0.616  0.223  0.483-  42 1.19  30 1.19  41 1.24   4 1.99  18 1.99
  14  0.780  0.390  0.410-  45 1.19  51 1.20  41 1.24  17 1.98  22 1.98
  15  0.610  0.394  0.445-  28 1.18  55 1.18  41 1.28  24 1.99   5 1.99
  16  0.940  0.052  0.471-  46 1.16  43 1.17  32 1.23  20 1.98   1 1.99
  17  0.941  0.387  0.404-  45 1.16  44 1.18  40 1.25  14 1.98   3 2.00
  18  0.623  0.066  0.522-  42 1.17  47 1.18  48 1.24  13 1.99  21 1.99
  19  0.613  0.711  0.541-  50 1.17  38 1.20  49 1.24  10 1.98  24 2.00
  20  0.790  0.897  0.533-  43 1.17  53 1.18  49 1.27  16 1.98  23 1.98
  21  0.609  0.892  0.531-  47 1.18  36 1.19  49 1.26  18 1.99  11 2.00
  22  0.938  0.563  0.430-  51 1.15  54 1.19  40 1.25  14 1.98   7 2.00
  23  0.954  0.902  0.545-  52 1.18  53 1.18  32 1.23  20 1.98   9 1.99
  24  0.621  0.555  0.500-  55 1.16  50 1.17  56 1.24  15 1.99  19 2.00
  25  0.167  0.335  0.435-   1 1.24   3 1.26   2 1.26
  26  0.165  0.161  0.431-   6 1.16   1 1.18
  27  0.336  0.002  0.532-   8 1.18   4 1.18
  28  0.512  0.352  0.402-   5 1.17  15 1.18
  29  0.345  0.361  0.400-   2 1.16   5 1.18
  30  0.506  0.177  0.503-   4 1.16  13 1.19
  31  0.159  0.988  0.457-   9 1.17   6 1.17
  32  0.002  0.002  0.493-  16 1.23  23 1.23   6 1.23
  33  0.165  0.831  0.510-   7 1.24   8 1.25   9 1.26
  34  0.134  0.645  0.528-  12 1.16   7 1.19  57 2.31
  35  0.334  0.491  0.501-  10 1.20   2 1.22  57 1.82
  36  0.503  0.831  0.500-  11 1.18  21 1.19
  37  0.333  0.829  0.489-  11 1.18   8 1.19
  38  0.499  0.648  0.555-  10 1.17  19 1.20  57 2.32
  39  0.142  0.484  0.495-  12 1.19   3 1.21  57 1.83
  40  0.988  0.496  0.446-  12 1.18  22 1.25  17 1.25
  41  0.667  0.330  0.439-  13 1.24  14 1.24  15 1.28
  42  0.680  0.178  0.505-  18 1.17  13 1.19
  43  0.827  0.986  0.478-  20 1.17  16 1.17
  44  0.011  0.348  0.389-   3 1.16  17 1.18
  45  0.830  0.330  0.389-  17 1.16  14 1.19
  46  0.993  0.161  0.445-  16 1.16   1 1.18
  47  0.669  0.005  0.549-  21 1.18  18 1.18
  48  0.505  0.004  0.508-  11 1.22  18 1.24   4 1.24
  49  0.668  0.832  0.544-  19 1.24  21 1.26  20 1.27
  50  0.675  0.666  0.522-  19 1.17  24 1.17
  51  0.832  0.507  0.406-  22 1.15  14 1.20
  52  0.016  0.853  0.559-  23 1.18   9 1.18
  53  0.849  0.860  0.576-  20 1.18  23 1.18
  54  0.004  0.677  0.444-   7 1.17  22 1.19
  55  0.668  0.491  0.494-  24 1.16  15 1.18
  56  0.506  0.502  0.477-  10 1.19  24 1.24   5 1.25
  57  0.287  0.593  0.568-  35 1.82  39 1.83  34 2.31  38 2.32  10 2.40  12 2.41
  58  0.287  0.593  0.966-  59 1.02
  59  0.232  0.530  0.023-  58 1.02

IMPORTANT INFORMATION: All symmetrisations will be switched off!
NOSYMM: (Re-)initialisation of all symmetry stuff for point group C_1.

 KPOINTS: K-Points

Automatic generation of k-mesh.
Space group operators:
 irot       det(A)        alpha          n_x          n_y          n_z        tau_x        tau_y        tau_z
    1     1.000000     0.000000     1.000000     0.000000     0.000000     0.000000     0.000000     0.000000

 Subroutine IBZKPT returns following result:

 Found      5 irreducible k-points:

 Following reciprocal coordinates:
            Coordinates               Weight
  0.000000  0.000000  0.000000      1.000000
  0.333333  0.000000  0.000000      2.000000
  0.000000  0.333333  0.000000      2.000000
  0.333333  0.333333  0.000000      2.000000
 -0.333333  0.333333  0.000000      2.000000

 Following cartesian coordinates:
            Coordinates               Weight
  0.000000  0.000000  0.000000      1.000000
  0.024277  0.014368  0.000000      2.000000
  0.000396  0.028736  0.000000      2.000000
  0.024673  0.043104  0.000000      2.000000
 -0.023881  0.014368  0.000000      2.000000

 TETIRR: Found     24 inequivalent tetrahedra from       54

 SYSTEM =  unknown system
 POSCAR =  POSCAR-c3n4

 Startparameter for this run:
   NWRITE =      2    write-flag & timer
   PREC   = normal    normal or accurate (medium, high low for compatibility)
   ISTART =      0    job   : 0-new  1-cont  2-samecut
   ICHARG =      2    charge: 1-file 2-atom 10-const
   ISPIN  =      2    spin polarized calculation?
   LNONCOLLINEAR =      F non collinear calculations
   LSORBIT =      F    spin-orbit coupling
   INIWAV =      1    electr: 0-lowe 1-rand  2-diag
   LASPH  =      F    aspherical Exc in radial PAW
   METAGGA=      F    non-selfconsistent MetaGGA calc.

 Electronic Relaxation 1
   ENCUT  =  440.0 eV  32.34 Ry    5.69 a.u.  20.84 20.45 22.58*2*pi/ulx,y,z
   ENINI  =  440.0     initial cutoff
   ENAUG  =  644.9 eV  augmentation charge cutoff
   NELM   =    100;   NELMIN=  2; NELMDL= -5     # of ELM steps
   EDIFF  = 0.1E-03   stopping-criterion for ELM
   LREAL  =      F    real-space projection
   NLSPLINE    = F    spline interpolate recip. space projectors
   LCOMPAT=      F    compatible to vasp.4.4
   GGA_COMPAT  = T    GGA compatible to vasp.4.4-vasp.4.6
   LMAXPAW     = -100 max onsite density
   LMAXMIX     =    2 max onsite mixed and CHGCAR
   VOSKOWN=      0    Vosko Wilk Nusair interpolation
   ROPT   =    0.00000   0.00000   0.00000   0.00000
   ROPT   =    0.00000
 Ionic relaxation
   EDIFFG = -.1E-01   stopping-criterion for IOM
   NSW    =      0    number of steps for IOM
   NBLOCK =      1;   KBLOCK =      1    inner block; outer block
   IBRION =     -1    ionic relax: 0-MD 1-quasi-New 2-CG
   NFREE  =      0    steps in history (QN), initial steepest desc. (CG)
   ISIF   =      2    stress and relaxation
   IWAVPR =     10    prediction:  0-non 1-charg 2-wave 3-comb
   ISYM   =      0    0-nonsym 1-usesym 2-fastsym
   LCORR  =      T    Harris-Foulkes like correction to forces

   POTIM  = 0.5000    time-step for ionic-motion
   TEIN   =    0.0    initial temperature
   TEBEG  =    0.0;   TEEND  =   0.0 temperature during run
   SMASS  =  -3.00    Nose mass-parameter (am)
   estimated Nose-frequenzy (Omega)   =  0.10E-29 period in steps =****** mass=  -0.339E-26a.u.
   SCALEE = 1.0000    scale energy and forces
   NPACO  =    256;   APACO  = 16.0  distance and # of slots for P.C.
   PSTRESS=    0.0 pullay stress

  Mass of Ions in am
   POMASS =  12.01 14.00 72.61 12.01 16.00
  Ionic Valenz
   ZVAL   =   4.00  5.00 14.00  4.00  6.00
  Atomic Wigner-Seitz radii
  virtual crystal weights
   VCA    =   1.00  1.00  1.00  1.00  1.00
   NELECT =     280.0000    total number of electrons
   NUPDOWN=      -1.0000    fix difference up-down

 DOS related values:
   EMIN   = -14.00;   EMAX   =  6.00  energy-range for DOS
   EFERMI =   0.00
   ISMEAR =    -5;   SIGMA  =   0.20  broadening in eV -4-tet -1-fermi 0-gaus

 Electronic relaxation 2 (details)
   IALGO  =     38    algorithm
   LDIAG  =      T    sub-space diagonalisation (order eigenvalues)
   LSUBROT=      F    optimize rotation matrix (better conditioning)
   TURBO    =      0    0=normal 1=particle mesh
   IRESTART =      0    0=no restart 2=restart with 2 vectors
   NREBOOT  =      0    no. of reboots
   NMIN     =      0    reboot dimension
   EREF     =   0.00    reference energy to select bands
   IMIX   =      4    mixing-type and parameters
     AMIX     =   0.25;   BMIX     =  0.00
     AMIX_MAG =   1.00;   BMIX_MAG =  0.00
     AMIN     =   0.10
     WC   =   100.;   INIMIX=   1;  MIXPRE=   1;  MAXMIX= -45

 Intra band minimization:
   WEIMIN = 0.0000     energy-eigenvalue tresh-hold
   EBREAK =  0.15E-06  absolut break condition
   DEPER  =   0.30     relativ break condition

   TIME   =   0.40     timestep for ELM

  volume/ion in A,a.u.               =      27.82       187.75
  Fermi-wavevector in a.u.,A,eV,Ry     =   0.907924  1.715728 11.215635  0.824326
  Thomas-Fermi vector in A             =   2.031789

 Write flags
   LWAVE        =      F    write WAVECAR
   LDOWNSAMPLE  =      F    k-point downsampling of WAVECAR
   LCHARG       =      F    write CHGCAR
   LVTOT        =      F    write LOCPOT, total local potential
   LVHAR        =      F    write LOCPOT, Hartree potential only
   LELF         =      F    write electronic localiz. function (ELF)
   LORBIT       =     11    0 simple, 1 ext, 2 COOP (PROOUT), +10 PAW based schemes

 Dipole corrections
   LMONO  =      F    monopole corrections only (constant potential shift)
   LDIPOL =      F    correct potential (dipole corrections)
   IDIPOL =      0    1-x, 2-y, 3-z, 4-all directions
   EPSILON=  1.0000000 bulk dielectric constant

 Exchange correlation treatment:
   GGA     =    --    GGA type
   VOSKOWN=      0    Vosko Wilk Nusair interpolation
   LHFCALC =     F    Hartree Fock is set to
   LHFONE  =     F    Hartree Fock one center treatment
   AEXX    =    0.0000 exact exchange contribution

 Linear response parameters
   LEPSILON=     F    determine dielectric tensor
   LRPA    =     F    only Hartree local field effects (RPA)
   LNABLA  =     F    use nabla operator in PAW spheres
   LVEL    =     F    velocity operator in full k-point grid
   LINTERFAST=   F  fast interpolation
   KINTER  =     0    interpolate to denser k-point grid
   CSHIFT  =0.1000    complex shift for real part using Kramers Kronig
[...]
  Total     610.61954   554.59578   132.73496    -7.06513    20.08681    12.17596
  in kB     596.00129   541.31874   129.55728    -6.89600    19.60593    11.88446

 VOLUME and BASIS-vectors are now :
  energy-cutoff  :      440.00
  volume of cell :     1641.47
      direct lattice vectors                 reciprocal lattice vectors
    12.182213326 -0.167851617  0.000000000     0.082761783  0.048981948 -0.000000000
    -6.091106663 10.291768075  0.000000000     0.001349787  0.097963896 -0.000000000
     0.000000000  0.000000000 13.200000000    -0.000000000 -0.000000000  0.075757576

  length of vectors
    12.183369636 11.959183521 13.200000000     0.096170391  0.097973195  0.075757576

 FORCES acting on ions
    electron-ion (+dipol)            ewald-force                    non-local-force                 convergence-correction
   -.714E+01 0.181E+02 0.138E+03   0.735E+01 -.175E+02 -.138E+03   -.249E+00 0.387E+01 -.159E+01   0.219E-01 0.121E-01 0.418E-02
   -.575E+01 0.381E+02 0.150E+03   0.409E+01 -.386E+02 -.150E+03   -.346E+01 0.934E+00 0.277E+00   0.281E-01 0.236E-02 0.124E-02
   -.118E+02 0.414E+02 0.147E+03   0.136E+02 -.417E+02 -.148E+03   0.312E+01 0.867E+00 0.650E+00   0.387E-01 -.490E-02 -.559E-03
   0.838E+02 -.705E+02 -.104E+03   -.874E+02 0.718E+02 0.105E+03   0.362E+01 -.192E+01 -.380E+00   -.139E-02 -.721E-02 0.775E-03
   -.213E+02 0.672E+02 0.237E+03   0.213E+02 -.699E+02 -.240E+03   -.375E+00 0.395E+01 0.234E+01   -.120E-01 0.198E-01 0.171E-01
   -.782E+02 -.208E+02 0.114E+03   0.817E+02 0.221E+02 -.116E+03   -.357E+01 -.182E+01 0.145E+01   -.104E-02 0.108E-01 0.121E-02
   0.530E+02 -.331E+02 -.400E+02   -.528E+02 0.340E+02 0.414E+02   0.743E+00 0.258E+01 0.872E+00   0.838E-03 0.134E-01 0.759E-03
   0.300E+02 -.243E+02 -.586E+02   -.305E+02 0.232E+02 0.585E+02   -.296E+01 -.205E+01 0.529E+00   0.272E-02 -.286E-02 0.647E-02
   -.556E+01 -.424E+01 -.716E+02   0.589E+01 0.285E+01 0.722E+02   0.335E+01 -.166E+01 0.346E+00   0.122E-02 0.283E-02 0.503E-03
   -.341E+02 0.212E+02 -.861E+02   0.319E+02 -.200E+02 0.880E+02   0.120E+01 -.201E+01 -.136E+01   0.158E-01 -.133E-01 -.105E-01
   -.439E+01 0.223E+02 0.569E+02   0.442E+01 -.268E+02 -.573E+02   0.934E-01 0.388E+01 -.645E+00   0.813E-02 -.139E-01 0.116E-01
   0.432E+02 0.190E+02 -.789E+02   -.410E+02 -.178E+02 0.813E+02   -.132E+01 -.247E+01 -.907E+00   0.170E-01 0.147E-01 0.704E-02
   -.411E+01 -.179E+02 -.198E+02   0.455E+01 0.177E+02 0.186E+02   -.199E+00 0.373E+01 -.759E+00   -.208E-01 0.856E-03 0.464E-03
   0.465E+02 0.347E+02 0.230E+03   -.472E+02 -.350E+02 -.230E+03   -.324E+01 -.137E+01 -.104E+01   -.259E-01 0.686E-02 0.609E-02
   -.142E+02 0.258E+02 0.103E+03   0.150E+02 -.273E+02 -.103E+03   0.341E+01 -.132E+01 -.506E+00   -.411E-01 0.169E-01 0.393E-02
   0.808E+02 -.193E+02 0.785E+02   -.844E+02 0.204E+02 -.796E+02   0.361E+01 -.192E+01 0.765E+00   0.526E-02 -.666E-02 0.421E-02
   0.853E+01 0.951E+02 0.253E+03   -.741E+01 -.979E+02 -.256E+03   -.152E+00 0.375E+01 0.215E+01   0.101E-01 0.349E-02 0.141E-03
   -.796E+02 -.738E+02 -.118E+03   0.834E+02 0.753E+02 0.120E+03   -.356E+01 -.185E+01 -.588E+00   -.388E-02 -.202E-01 0.346E-02
   -.456E+02 -.312E+02 -.168E+03   0.444E+02 0.328E+02 0.169E+03   -.396E+00 0.259E+01 0.906E+00   0.655E-03 -.149E-01 -.677E-02
   0.944E+01 -.544E+01 -.130E+03   -.102E+02 0.408E+01 0.131E+03   -.344E+01 -.157E+01 0.586E+00   -.671E-02 -.136E-01 -.102E-03
   -.333E+02 -.185E+02 -.106E+03   0.342E+02 0.174E+02 0.106E+03   0.291E+01 -.217E+01 0.112E+01   0.324E-02 -.212E-01 0.400E-02
   0.937E+02 -.852E+02 0.164E+03   -.957E+02 0.891E+02 -.165E+03   0.356E+01 -.266E+01 0.358E+00   -.411E-02 0.178E-01 0.557E-02
   -.129E+02 0.537E+02 -.226E+03   0.130E+02 -.577E+02 0.230E+03   -.747E-01 0.414E+01 -.181E+01   -.907E-02 0.457E-03 -.222E-02
   -.106E+03 -.311E+02 -.730E+02   0.109E+03 0.327E+02 0.749E+02   -.396E+01 -.135E+01 -.144E+01   -.319E-01 -.142E-01 -.738E-02
   -.181E+02 0.507E+02 0.198E+03   0.188E+02 -.514E+02 -.202E+03   -.337E+00 0.148E+01 0.315E+01   0.583E-01 0.142E-01 0.817E-02
   -.242E+03 -.361E+02 0.269E+03   0.284E+03 0.587E+02 -.287E+03   -.318E+02 -.165E+02 0.129E+02   0.293E-02 0.229E-01 0.462E-02
   0.195E+03 -.191E+03 -.287E+03   -.236E+03 0.214E+03 0.304E+03   0.311E+02 -.167E+02 -.107E+02   0.270E-02 -.822E-02 0.505E-03
   0.310E+01 0.213E+03 0.476E+03   0.384E+00 -.252E+03 -.508E+03   -.186E+01 0.292E+02 0.224E+02   -.295E-01 0.460E-01 0.330E-01
   -.488E+02 0.177E+03 0.499E+03   0.466E+02 -.213E+03 -.535E+03   0.178E+01 0.279E+02 0.255E+02   0.159E-01 0.377E-01 0.360E-01
   0.239E+03 -.122E+03 -.136E+03   -.280E+03 0.150E+03 0.138E+03   0.301E+02 -.194E+02 -.241E-01   -.143E-01 0.807E-02 -.312E-02
   -.180E+03 -.991E+02 0.306E+03   0.221E+03 0.112E+03 -.334E+03   -.306E+02 -.102E+02 0.197E+02   -.361E-02 0.389E-02 0.560E-02
   -.549E+01 -.656E+00 -.298E+02   0.590E+01 0.345E+00 0.314E+02   -.200E+00 0.153E+00 -.106E+01   -.306E-02 0.197E-03 0.127E-02
   0.225E+02 -.300E+02 -.117E+03   -.225E+02 0.311E+02 0.123E+03   0.256E+00 -.771E+00 -.404E+01   0.472E-02 0.157E-02 0.484E-02
   0.962E+00 -.762E+02 -.365E+03   0.280E+02 0.952E+02 0.400E+03   -.226E+02 -.141E+02 -.239E+02   0.211E-01 0.177E-01 0.760E-02
   0.727E+01 0.835E+02 -.925E+02   -.344E+02 -.789E+02 0.107E+03   0.192E+02 -.413E+01 -.106E+02   0.208E-01 0.144E-02 -.191E-02
   -.218E+02 0.137E+03 0.150E+03   0.257E+02 -.183E+03 -.165E+03   -.233E+01 0.341E+02 0.976E+01   0.619E-02 -.266E-01 0.150E-01
   0.443E+00 0.133E+03 0.167E+03   -.330E+01 -.179E+03 -.182E+03   0.154E+01 0.340E+02 0.983E+01   0.139E-01 -.116E-01 0.172E-01
   0.465E+02 -.743E+02 -.399E+03   -.816E+02 0.940E+02 0.426E+03   0.272E+02 -.145E+02 -.180E+02   -.373E-02 -.226E-01 -.122E-01
   -.379E+00 0.952E+02 -.131E+03   0.251E+02 -.915E+02 0.151E+03   -.176E+02 -.354E+01 -.143E+02   0.471E-01 0.184E-01 0.177E-01
   0.647E+02 0.225E+02 0.864E+02   -.712E+02 -.270E+02 -.866E+02   0.389E+01 0.279E+01 -.324E+00   0.619E-02 0.220E-01 0.577E-02
   0.182E+02 0.485E+02 0.179E+03   -.210E+02 -.507E+02 -.185E+03   0.203E+01 0.163E+01 0.400E+01   -.638E-01 0.195E-01 0.562E-02
   -.235E+03 -.129E+03 -.149E+03   0.276E+03 0.155E+03 0.151E+03   -.303E+02 -.184E+02 -.101E+01   -.117E-01 -.168E-01 0.776E-02
   0.185E+03 -.838E+02 0.238E+03   -.227E+03 0.965E+02 -.262E+03   0.317E+02 -.992E+01 0.166E+02   0.357E-02 -.218E-01 0.115E-01
   0.162E+02 0.205E+03 0.514E+03   -.108E+02 -.242E+03 -.548E+03   -.429E+01 0.289E+02 0.230E+02   0.385E-01 -.573E-02 -.361E-02
   0.753E+01 0.293E+03 0.431E+03   -.101E+02 -.340E+03 -.447E+03   0.763E+00 0.341E+02 0.108E+02   -.722E-02 -.749E-02 -.516E-02
   0.243E+03 -.373E+02 0.162E+03   -.286E+03 0.618E+02 -.171E+03   0.323E+02 -.176E+02 0.648E+01   0.256E-01 -.576E-02 0.488E-02
   -.177E+03 -.196E+03 -.353E+03   0.216E+03 0.218E+03 0.374E+03   -.297E+02 -.164E+02 -.137E+02   -.100E-02 -.312E-01 0.124E-02
   0.938E+00 -.431E+02 -.153E+02   -.815E+00 0.450E+02 0.120E+02   -.161E+00 -.112E+01 0.209E+01   -.685E-03 -.173E-01 0.800E-02
   -.220E+02 -.330E+02 -.227E+03   0.214E+02 0.359E+02 0.235E+03   0.178E+00 -.209E+01 -.544E+01   -.362E-02 -.230E-01 -.189E-02
   -.280E+03 -.816E+02 -.112E+03   0.323E+03 0.106E+03 0.113E+03   -.311E+02 -.184E+02 -.137E+01   -.315E-01 -.256E-01 -.444E-02
   0.222E+03 -.183E+03 0.365E+03   -.265E+03 0.204E+03 -.378E+03   0.309E+02 -.168E+02 0.653E+01   -.300E-01 0.142E-01 0.667E-02
   0.156E+01 0.183E+03 -.465E+03   0.457E+01 -.222E+03 0.498E+03   -.413E+01 0.288E+02 -.229E+02   -.333E-02 0.567E-02 -.345E-02
   -.440E+02 0.142E+03 -.523E+03   0.423E+02 -.177E+03 0.560E+03   0.109E+01 0.274E+02 -.263E+02   -.170E-01 -.480E-02 -.938E-02
   0.236E+03 -.160E+03 0.284E+03   -.270E+03 0.190E+03 -.302E+03   0.246E+02 -.225E+02 0.120E+02   0.301E-02 0.179E-01 0.877E-02
   -.208E+03 -.907E+02 -.226E+03   0.253E+03 0.102E+03 0.246E+03   -.322E+02 -.993E+01 -.141E+02   -.609E-01 -.627E-02 -.154E-01
   -.607E+02 0.260E+02 0.518E+02   0.653E+02 -.297E+02 -.557E+02   -.261E+01 0.214E+01 0.208E+01   -.490E-02 -.124E-01 -.716E-02
   0.550E+02 -.142E+03 -.118E+04   -.570E+02 0.165E+03 0.122E+04   0.149E+01 -.196E+02 -.266E+02   0.123E+00 0.583E-02 -.393E-01
   -.773E+02 -.176E+03 0.166E+03   0.912E+02 0.208E+03 -.202E+03   -.775E+01 -.175E+02 0.204E+02   0.243E-02 -.109E-02 -.369E-02
   0.639E+02 0.144E+03 -.859E+02   -.890E+02 -.201E+03 0.152E+03   0.190E+02 0.431E+02 -.501E+02   0.647E-02 0.356E-02 -.938E-02
   -.830E+01 -.297E+02 0.356E+02   0.426E-12 0.284E-13 -.568E-12   0.820E+01 0.298E+02 -.357E+02   0.109E+00 0.204E-02 0.143E+00

 POSITION                                       TOTAL-FORCE (eV/Angst)
     -0.01316      2.17975      5.76028        -0.020291      4.492822     -1.530364
      1.07413      4.05469      5.84864        -5.097317      0.495977     -0.007223
     -1.12190      4.01462      5.77114         4.969980      0.531727      0.538824
      5.06060      0.58193      6.80611         0.014880     -0.594705      0.918871
      3.06949      4.05359      5.57628        -0.382063      1.278871     -0.674519
      1.04359      0.52397      6.05354        -0.110593     -0.508455     -0.324786
     -3.16220      7.31064      6.51845         0.958021      3.542890      2.198918
     -1.95759      9.11260      6.74680        -3.413507     -3.144430      0.522458
     -4.12091      9.19662      6.70620         3.690295     -3.051703      0.894553
      2.11714      5.56749      6.75608        -1.052720     -0.818136      0.434631
      0.03468      9.03552      6.58535         0.138200     -0.568749     -1.003390
     -2.24328      5.56462      6.47581         0.908178     -1.255153      1.490434
      6.14818      2.19089      6.37065         0.221005      3.544386     -1.870114
      7.13142      3.87956      5.40940        -3.967572     -1.719761     -0.920611
      5.03388      3.95583      5.87904         4.111063     -2.871876     -0.681303
     11.12684      0.38054      6.21219        -0.042565     -0.746869     -0.380717
      9.10565      3.82016      5.33017         0.978044      0.931230     -1.075845
      7.18743      0.57041      6.88977         0.281681     -0.279148      0.805881
      3.13859      7.21641      7.14343        -1.649709      4.259408      2.143198
      4.15672      9.10195      7.03297        -4.218559     -2.939778      2.169668
      1.98816      9.08293      7.01247         3.884372     -3.296378      1.504792
      8.00253      5.63506      5.68167         1.556203      1.290133     -0.287441
      6.13375      9.12009      7.18852         0.006818      0.121871      1.227446
      4.19041      5.60409      6.59710        -1.117823      0.300407      0.429136
     -0.01263      3.42442      5.74132         0.391806      0.765509     -0.919962
      1.02640      1.62902      5.68752        10.392760      6.134595     -4.993888
      4.08546     -0.03785      7.02343       -10.200121      5.818839      6.326590
      4.08741      3.54163      5.31045         1.597129     -9.745232     -9.634495
      2.00208      3.65485      5.27569        -0.426967     -8.032971    -10.514248
      5.08352      1.73404      6.64055       -10.260135      8.475109      1.544407
     -4.08564     10.14388      6.02682        10.239291      3.063353     -8.605204
      0.01481      0.01882      6.50446         0.207950     -0.152604      0.556407
     -3.05517      8.52308      6.73438         0.268817      0.294754      1.854713
     -2.29789      6.61846      6.96575         6.411844      4.951685     10.357348
      1.07365      4.99891      6.61942        -7.924179      0.453769      3.722318
      1.06586      8.46580      6.59530         1.605568    -11.690487     -4.997958
     -0.99396      8.47934      6.45868        -1.308553    -11.658123     -5.019877
      2.13196      6.58563      7.32275        -7.959144      5.163490      9.007881
     -1.21927      4.95378      6.53448         7.175939      0.122728      5.796643
      9.01992      4.93836      5.88599        -2.546516     -1.651089     -0.476775
      6.11897      3.28585      5.79794        -0.861078     -0.496796     -2.115855
      7.19592      1.71806      6.66809        10.534403      8.137406      1.015820
      4.06995     10.01115      6.30656       -10.693466      2.736892     -7.981172
     -1.98665      3.58072      5.13114         1.165769     -8.480614    -10.518017
      8.10601      3.25859      5.14073        -1.771541    -12.616447     -5.730792
     11.11569      1.49050      5.87468       -10.776590      6.836987     -2.585297
      8.11634     -0.05830      7.25210         9.326825      5.923331      7.381044
      6.12652     -0.04477      6.70863        -0.041956      0.698577     -1.218377
      3.07193      8.45342      7.18238        -0.444934      0.749176      2.541026
      4.17371      6.73596      6.89548        11.317896      6.298132      0.254909
      7.05082      5.07485      5.35480       -11.969178      4.354409     -5.802060
     -5.00267      8.77617      7.37349         1.994749     -9.471251      9.411359
      5.10997      8.70389      7.60280        -0.658706     -7.658051     11.125897
     -4.07361      6.96953      5.86707        -9.027374      7.863973     -5.959198
      5.13959      4.94407      6.51738        12.006306      1.788346      6.384164
      3.10351      5.07950      6.29748         1.956878     -1.560782     -1.818608
     -0.11787      6.05367      7.49384        -0.369149      3.585128      5.089563
     -0.11787      6.05367     12.75624         6.129945     13.852014    -16.120647
     -0.40036      5.41493      0.30014        -6.130312    -13.848333     16.119846
    total drift:                                0.006777      0.016295      0.008812

  FREE ENERGIE OF THE ION-ELECTRON SYSTEM (eV)
  free  energy   TOTEN  =      -419.95439397 eV

  energy  without entropy=     -419.95439397  energy(sigma->0) =     -419.95439397

 total charge

[...]

 magnetization (x)

# of ion       s       p       d       tot
    1       -0.000  -0.000   0.000  -0.000
    2        0.000   0.000   0.000   0.000
    3       -0.000  -0.000   0.000  -0.000
    4       -0.000  -0.000   0.000  -0.000
    5        0.000   0.000   0.000   0.000
    6       -0.000  -0.000   0.000  -0.000
    7       -0.000  -0.000   0.000  -0.000
    8       -0.000  -0.000   0.000  -0.000
    9       -0.000  -0.000   0.000  -0.000
   10       -0.000  -0.000   0.000  -0.000
   11       -0.000  -0.000   0.000  -0.000
   12       -0.000   0.000   0.000   0.000
   13       -0.000  -0.000   0.000  -0.000
   14       -0.000  -0.000   0.000  -0.000
   15        0.000   0.000   0.000   0.000
   16       -0.000   0.000   0.000   0.000
   17       -0.000  -0.000   0.000  -0.000
   18       -0.000  -0.000   0.000  -0.000
   19       -0.000   0.000   0.000   0.000
   20       -0.000  -0.000   0.000  -0.000
   21       -0.000  -0.000   0.000  -0.000
   22       -0.000  -0.000   0.000  -0.000
   23        0.000  -0.000   0.000   0.000
   24        0.000   0.000   0.000   0.000
   25        0.000   0.000   0.000   0.000
   26        0.000   0.000   0.000   0.000
   27        0.000   0.000   0.000   0.000
   28       -0.000  -0.000   0.000  -0.000
   29       -0.000  -0.000   0.000  -0.000
   30        0.000   0.000   0.000   0.000
   31       -0.000  -0.000   0.000  -0.000
   32        0.000   0.000   0.000   0.000
   33       -0.000   0.000   0.000  -0.000
   34        0.000   0.000   0.000   0.000
   35        0.000  -0.000   0.000  -0.000
   36       -0.000  -0.000   0.000  -0.000
   37        0.000  -0.000   0.000   0.000
   38        0.000   0.000   0.000   0.000
   39       -0.000   0.000   0.000   0.000
   40       -0.000  -0.000   0.000  -0.000
   41       -0.000   0.000   0.000  -0.000
   42       -0.000   0.000   0.000   0.000
   43       -0.000   0.000   0.000   0.000
   44        0.000   0.000   0.000   0.000
   45       -0.000   0.000   0.000   0.000
   46       -0.000   0.000   0.000   0.000
   47       -0.000   0.000   0.000   0.000
   48        0.000  -0.000   0.000  -0.000
   49       -0.000  -0.000   0.000  -0.000
   50        0.000  -0.000   0.000  -0.000
   51       -0.000  -0.000   0.000  -0.000
   52        0.000   0.000   0.000   0.000
   53        0.000   0.000   0.000   0.000
   54       -0.000   0.000   0.000   0.000
   55       -0.000  -0.000   0.000  -0.000
   56       -0.000   0.000   0.000   0.000
   57        0.000   0.000   0.000   0.000
   58        0.000   0.000   0.000   0.000
   59        0.000  -0.000   0.000  -0.000
tot         -0.000  -0.000   0.000  -0.000

 BZINTS: Fermi energy: -0.295324;280.000000 electrons
         Band energy:***********;  BLOECHL correction:  0.000000