 vasp.5.4.4.18Apr17-6-g9f103f2a35 (build Nov  8 2022 18:58:45) complex
 executed on             LinuxGNU date 2023.04.13  15:54:38

 INCAR:
 POTCAR:    PAW_PBE C 08Apr2002
 POTCAR:    PAW_PBE N 08Apr2002
 POTCAR:    PAW_PBE Ge_d 03Jul2007
 POTCAR:    PAW_PBE C 08Apr2002
 POTCAR:    PAW_PBE O 08Apr2002
 POTCAR:    PAW_PBE C 08Apr2002
   VRHFIN =C: s2p2

   TITEL  = PAW_PBE C 08Apr2002
   POMASS =   12.011; ZVAL   =    4.000    mass and valenz
   ENMAX  =  400.000; ENMIN  =  300.000 eV

[...]

   TITEL  = PAW_PBE Ge_d 03Jul2007
   POMASS =   72.610; ZVAL   =   14.000    mass and valenz
   ENMAX  =  310.294; ENMIN  =  232.720 eV

[...]

   TITEL  = PAW_PBE O 08Apr2002
   POMASS =   16.000; ZVAL   =    6.000    mass and valenz
   ENMAX  =  400.000; ENMIN  =  300.000 eV

  PAW_PBE C 08Apr2002                   :
  PAW_PBE N 08Apr2002                   :
  PAW_PBE Ge_d 03Jul2007                :
  PAW_PBE C 08Apr2002                   :
  PAW_PBE O 08Apr2002                   :

 POSCAR: POSCAR-c3n4
  positions in direct lattice
  velocities in cartesian coordinates
 exchange correlation table for  LEXCH =        8
   RHO(1)=    0.500       N(1)  =     2000
   RHO(2)=  100.500       N(2)  =     4000

 ion  position               nearest neighbor table
   1  0.076  0.147  0.458-  26 1.23  46 1.24
   2  0.287  0.443  0.493-  25 1.32  29 1.36  35 1.41
   3  0.129  0.437  0.488-  44 1.33  25 1.35  39 1.40
   4  0.492  0.055  0.474-  30 1.30  27 1.37  48 1.42
   5  0.423  0.421  0.474-  29 1.31  28 1.35  56 1.42
   6  0.084  0.017  0.493-  31 1.27  32 1.42  26 1.43
   7  0.064  0.704  0.513-  54 1.34  33 1.36  34 1.40
   8  0.347  0.901  0.458-  27 1.29  37 1.33
   9  0.063  0.859  0.522-  33 1.31  52 1.37  31 1.41
  10  0.452  0.588  0.514-  38 1.32  35 1.36  56 1.39
  11  0.486  0.891  0.471-  36 1.32  37 1.35  48 1.39
  12  0.100  0.575  0.505-  34 1.31  40 1.38  39 1.38
  13  0.648  0.202  0.493-  41 1.33  42 1.38  30 1.38
  14  0.801  0.367  0.482-  41 1.34  51 1.37  45 1.38
  15  0.562  0.417  0.447-  28 1.30  55 1.32
  16  0.926  0.021  0.471-  43 1.30  32 1.40  46 1.41
  17  0.963  0.399  0.478-  45 1.31  44 1.35  40 1.42
  18  0.638  0.048  0.516-  42 1.31  47 1.36  48 1.42
  19  0.612  0.726  0.511-  50 1.32  38 1.36  49 1.42
  20  0.780  0.882  0.512-  53 1.31  43 1.36  49 1.42
  21  0.627  0.894  0.508-  47 1.32  36 1.35  49 1.43
  22  0.929  0.538  0.495-  51 1.32  54 1.35  40 1.42
  23  0.921  0.871  0.530-  52 1.30  53 1.36  32 1.44
  24  0.594  0.576  0.469-  55 1.33  50 1.34  56 1.42
  25  0.188  0.396  0.486-   2 1.32   3 1.35
  26  0.139  0.126  0.477-   1 1.23   6 1.43
  27  0.389  0.999  0.462-   8 1.29   4 1.37
  28  0.465  0.365  0.459-  15 1.30   5 1.35
  29  0.325  0.382  0.480-   5 1.31   2 1.36
  30  0.546  0.155  0.476-   4 1.30  13 1.38
  31  0.126  0.965  0.506-   6 1.27   9 1.41
  32  0.977  0.972  0.496-  16 1.40   6 1.42  23 1.44
  33  0.109  0.808  0.516-   9 1.31   7 1.36
  34  0.134  0.672  0.518-  12 1.31   7 1.40
  35  0.351  0.548  0.514-  10 1.36   2 1.41  57 2.13
  36  0.537  0.843  0.472-  11 1.32  21 1.35
  37  0.385  0.840  0.458-   8 1.33  11 1.35
  38  0.516  0.683  0.538-  10 1.32  19 1.36
  39  0.167  0.541  0.503-  12 1.38   3 1.40  57 2.04
  40  0.999  0.504  0.493-  12 1.38  17 1.42  22 1.42
  41  0.700  0.303  0.483-  13 1.33  14 1.34
  42  0.689  0.148  0.523-  18 1.31  13 1.38
  43  0.828  0.974  0.472-  16 1.30  20 1.36
  44  0.031  0.369  0.475-   3 1.33  17 1.35
  45  0.866  0.333  0.468-  17 1.31  14 1.38
  46  0.987  0.123  0.445-   1 1.24  16 1.41
  47  0.676  0.988  0.537-  21 1.32  18 1.36
  48  0.537  0.997  0.486-  11 1.39   4 1.42  18 1.42
  49  0.674  0.834  0.517-  19 1.42  20 1.42  21 1.43
  50  0.652  0.678  0.476-  19 1.32  24 1.34
  51  0.831  0.469  0.491-  22 1.32  14 1.37
  52  0.964  0.819  0.544-  23 1.30   9 1.37
  53  0.822  0.835  0.546-  20 1.31  23 1.36
  54  0.965  0.639  0.501-   7 1.34  22 1.35
  55  0.630  0.517  0.447-  15 1.32  24 1.33
  56  0.489  0.529  0.485-  10 1.39  24 1.42   5 1.42
  57  0.305  0.654  0.542-  39 2.04  35 2.13
  58  0.247  0.553  0.684-  59 1.14
  59  0.264  0.561  0.750-  58 1.14

IMPORTANT INFORMATION: All symmetrisations will be switched off!
NOSYMM: (Re-)initialisation of all symmetry stuff for point group C_1.

 KPOINTS: K-Points

Automatic generation of k-mesh.
Space group operators:
 irot       det(A)        alpha          n_x          n_y          n_z        tau_x        tau_y        tau_z
    1     1.000000     0.000000     1.000000     0.000000     0.000000     0.000000     0.000000     0.000000

 Subroutine IBZKPT returns following result:

 Found      5 irreducible k-points:

 Following reciprocal coordinates:
            Coordinates               Weight
  0.000000  0.000000  0.000000      1.000000
  0.333333  0.000000  0.000000      2.000000
  0.000000  0.333333  0.000000      2.000000
  0.333333  0.333333  0.000000      2.000000
 -0.333333  0.333333  0.000000      2.000000

 Following cartesian coordinates:
            Coordinates               Weight
  0.000000  0.000000  0.000000      1.000000
  0.024277  0.014368  0.000000      2.000000
  0.000396  0.028736  0.000000      2.000000
  0.024673  0.043104  0.000000      2.000000
 -0.023881  0.014368  0.000000      2.000000

 TETIRR: Found     24 inequivalent tetrahedra from       54

 SYSTEM =  unknown system
 POSCAR =  POSCAR-c3n4

 Startparameter for this run:
   NWRITE =      2    write-flag & timer
   PREC   = normal    normal or accurate (medium, high low for compatibility)
   ISTART =      0    job   : 0-new  1-cont  2-samecut
   ICHARG =      2    charge: 1-file 2-atom 10-const
   ISPIN  =      2    spin polarized calculation?
   LNONCOLLINEAR =      F non collinear calculations
   LSORBIT =      F    spin-orbit coupling
   INIWAV =      1    electr: 0-lowe 1-rand  2-diag
   LASPH  =      F    aspherical Exc in radial PAW
   METAGGA=      F    non-selfconsistent MetaGGA calc.

 Electronic Relaxation 1
   ENCUT  =  440.0 eV  32.34 Ry    5.69 a.u.  26.52 26.03 28.73*2*pi/ulx,y,z
   ENINI  =  440.0     initial cutoff
   ENAUG  =  644.9 eV  augmentation charge cutoff
   NELM   =    100;   NELMIN=  2; NELMDL= -5     # of ELM steps
   EDIFF  = 0.1E-03   stopping-criterion for ELM
   LREAL  =      F    real-space projection
   NLSPLINE    = F    spline interpolate recip. space projectors
   LCOMPAT=      F    compatible to vasp.4.4
   GGA_COMPAT  = T    GGA compatible to vasp.4.4-vasp.4.6
   LMAXPAW     = -100 max onsite density
   LMAXMIX     =    2 max onsite mixed and CHGCAR
   VOSKOWN=      0    Vosko Wilk Nusair interpolation
   ROPT   =    0.00000   0.00000   0.00000   0.00000
   ROPT   =    0.00000
 Ionic relaxation
   EDIFFG = -.1E-01   stopping-criterion for IOM
   NSW    =      0    number of steps for IOM
   NBLOCK =      1;   KBLOCK =      1    inner block; outer block
   IBRION =     -1    ionic relax: 0-MD 1-quasi-New 2-CG
   NFREE  =      0    steps in history (QN), initial steepest desc. (CG)
   ISIF   =      2    stress and relaxation
   IWAVPR =     10    prediction:  0-non 1-charg 2-wave 3-comb
   ISYM   =      0    0-nonsym 1-usesym 2-fastsym
   LCORR  =      T    Harris-Foulkes like correction to forces

   POTIM  = 0.5000    time-step for ionic-motion
   TEIN   =    0.0    initial temperature
   TEBEG  =    0.0;   TEEND  =   0.0 temperature during run
   SMASS  =  -3.00    Nose mass-parameter (am)
   estimated Nose-frequenzy (Omega)   =  0.10E-29 period in steps =****** mass=  -0.549E-26a.u.
   SCALEE = 1.0000    scale energy and forces
   NPACO  =    256;   APACO  = 16.0  distance and # of slots for P.C.
   PSTRESS=    0.0 pullay stress

  Mass of Ions in am
   POMASS =  12.01 14.00 72.61 12.01 16.00
  Ionic Valenz
   ZVAL   =   4.00  5.00 14.00  4.00  6.00
  Atomic Wigner-Seitz radii
  virtual crystal weights
   VCA    =   1.00  1.00  1.00  1.00  1.00
   NELECT =     280.0000    total number of electrons
   NUPDOWN=      -1.0000    fix difference up-down

 DOS related values:
   EMIN   = -14.00;   EMAX   =  6.00  energy-range for DOS
   EFERMI =   0.00
   ISMEAR =    -5;   SIGMA  =   0.20  broadening in eV -4-tet -1-fermi 0-gaus

 Electronic relaxation 2 (details)
   IALGO  =     38    algorithm
   LDIAG  =      T    sub-space diagonalisation (order eigenvalues)
   LSUBROT=      F    optimize rotation matrix (better conditioning)
   TURBO    =      0    0=normal 1=particle mesh
   IRESTART =      0    0=no restart 2=restart with 2 vectors
   NREBOOT  =      0    no. of reboots
   NMIN     =      0    reboot dimension
   EREF     =   0.00    reference energy to select bands
   IMIX   =      4    mixing-type and parameters
     AMIX     =   0.25;   BMIX     =  0.00
     AMIX_MAG =   1.00;   BMIX_MAG =  0.00
     AMIN     =   0.10
     WC   =   100.;   INIMIX=   1;  MIXPRE=   1;  MAXMIX= -45

 Intra band minimization:
   WEIMIN = 0.0000     energy-eigenvalue tresh-hold
   EBREAK =  0.15E-06  absolut break condition
   DEPER  =   0.30     relativ break condition

   TIME   =   0.40     timestep for ELM

  volume/ion in A,a.u.               =      57.36       387.07
  Fermi-wavevector in a.u.,A,eV,Ry     =   0.713369  1.348072  6.923938  0.508895
  Thomas-Fermi vector in A             =   1.800989

 Write flags
   LWAVE        =      F    write WAVECAR
   LDOWNSAMPLE  =      F    k-point downsampling of WAVECAR
   LCHARG       =      F    write CHGCAR
   LVTOT        =      F    write LOCPOT, total local potential
   LVHAR        =      F    write LOCPOT, Hartree potential only
   LELF         =      F    write electronic localiz. function (ELF)
   LORBIT       =     11    0 simple, 1 ext, 2 COOP (PROOUT), +10 PAW based schemes

 Dipole corrections
   LMONO  =      F    monopole corrections only (constant potential shift)
   LDIPOL =      F    correct potential (dipole corrections)
   IDIPOL =      0    1-x, 2-y, 3-z, 4-all directions
   EPSILON=  1.0000000 bulk dielectric constant

 Exchange correlation treatment:
   GGA     =    --    GGA type
   VOSKOWN=      0    Vosko Wilk Nusair interpolation
   LHFCALC =     F    Hartree Fock is set to
   LHFONE  =     F    Hartree Fock one center treatment
   AEXX    =    0.0000 exact exchange contribution

 Linear response parameters
   LEPSILON=     F    determine dielectric tensor
   LRPA    =     F    only Hartree local field effects (RPA)
   LNABLA  =     F    use nabla operator in PAW spheres
   LVEL    =     F    velocity operator in full k-point grid
   LINTERFAST=   F  fast interpolation
   KINTER  =     0    interpolate to denser k-point grid
   CSHIFT  =0.1000    complex shift for real part using Kramers Kronig
   OMEGAMAX=  -1.0    maximum frequency
   DEG_THRESHOLD= 0.2000000E-02 threshold for treating states as degnerate
   RTIME   =   -0.100 relaxation time in fs
  (WPLASMAI=    0.000 imaginary part of plasma frequency in eV, 0.658/RTIME)
   DFIELD  = 0.0000000 0.0000000 0.0000000 field for delta impulse in time

 Orbital magnetization related:
   ORBITALMAG=     F  switch on orbital magnetization
   LCHIMAG   =     F  perturbation theory with respect to B field
   DQ        =  0.001000  dq finite difference perturbation B field
[...]
  Total     -11.89963   -14.30843    -6.92396    -1.04261     0.04244     0.83629
  in kB      -5.63383    -6.77427    -3.27812    -0.49362     0.02010     0.39594

 VOLUME and BASIS-vectors are now :
  energy-cutoff  :      440.00
  volume of cell :     3384.08
      direct lattice vectors                 reciprocal lattice vectors
    15.504635143 -0.213629331  0.000000000     0.065027115  0.038485816 -0.000000000
    -7.752317571 13.098613913  0.000000000     0.001060547  0.076971633 -0.000000000
     0.000000000  0.000000000 16.800000000    -0.000000000 -0.000000000  0.059523810

  length of vectors
    15.506106810 15.220779027 16.800000000     0.075562450  0.076978939  0.059523810

 FORCES acting on ions
    electron-ion (+dipol)            ewald-force                    non-local-force                 convergence-correction
   -.387E+02 -.187E+03 0.126E+03   0.386E+02 0.185E+03 -.125E+03   0.222E+00 0.206E+01 -.862E+00   -.159E-01 -.265E-01 0.401E-02
   -.189E+02 0.111E+03 0.281E+02   0.186E+02 -.112E+03 -.289E+02   0.429E+00 0.825E+00 0.785E+00   -.225E+00 0.594E-01 0.346E-01
   -.952E+01 0.985E+02 0.519E+02   0.907E+01 -.997E+02 -.521E+02   0.454E+00 0.122E+01 0.158E+00   -.228E-01 0.680E-01 0.113E-01
   0.128E+03 -.681E+02 0.525E+02   -.130E+03 0.718E+02 -.526E+02   0.189E+01 -.265E+01 0.267E+00   -.321E+00 -.563E+00 -.630E-01
   -.491E+02 0.145E+03 0.496E+02   0.488E+02 -.148E+03 -.500E+02   0.495E+00 0.341E+01 0.257E+00   -.643E+00 0.121E+00 0.134E+00
   -.957E+02 -.913E+02 0.175E+02   0.988E+02 0.895E+02 -.166E+02   -.330E+01 0.197E+01 -.923E+00   0.668E-01 -.241E-01 -.108E-01
   0.327E+02 -.662E+02 -.330E+02   -.342E+02 0.657E+02 0.336E+02   0.140E+01 0.418E+00 -.530E+00   0.212E+00 0.201E+00 -.439E-01
   0.227E+03 0.363E+02 0.128E+03   -.233E+03 -.393E+02 -.128E+03   0.677E+01 0.368E+01 -.146E-01   -.470E+00 -.225E+00 -.492E-01
   -.451E+02 -.289E+02 -.584E+02   0.445E+02 0.272E+02 0.571E+02   0.342E+00 0.184E+01 0.126E+01   0.220E+00 0.297E-01 -.429E-01
   -.307E+02 0.373E+02 -.514E+02   0.298E+02 -.354E+02 0.522E+02   0.112E+01 -.205E+01 -.765E+00   -.270E+00 0.193E+00 0.709E-01
   0.421E+02 -.282E+01 0.110E+03   -.412E+02 0.157E+00 -.110E+03   -.240E+00 0.283E+01 0.245E-01   -.501E+00 -.448E-01 -.461E-01
   0.365E+02 -.109E+02 0.764E+01   -.364E+02 0.135E+02 -.722E+01   -.114E+00 -.278E+01 -.386E+00   0.841E-01 0.174E+00 -.125E-01
   0.494E+02 -.546E+02 -.738E+01   -.481E+02 0.550E+02 0.589E+01   -.132E+01 0.256E+00 0.146E+01   0.717E-01 -.341E+00 0.377E-01
   0.665E+02 0.184E+02 0.304E+02   -.659E+02 -.185E+02 -.290E+02   -.734E+00 0.318E+00 -.142E+01   0.255E+00 -.405E-01 0.400E-01
   -.179E+03 0.160E+03 0.133E+03   0.188E+03 -.166E+03 -.135E+03   -.793E+01 0.559E+01 0.168E+01   -.481E+00 0.318E+00 0.144E+00
   0.211E+02 -.836E+02 0.991E+02   -.242E+02 0.829E+02 -.987E+02   0.323E+01 0.873E+00 -.431E+00   0.227E-01 0.438E-01 -.314E-02
   0.581E+01 0.922E+02 0.666E+02   -.594E+01 -.954E+02 -.674E+02   0.844E-01 0.319E+01 0.852E+00   0.847E-01 0.294E-01 0.110E-01
   -.368E+02 -.688E+02 -.852E+02   0.391E+02 0.712E+02 0.864E+02   -.205E+01 -.219E+01 -.108E+01   -.130E+00 -.140E+00 -.359E-01
   -.619E+02 -.490E+01 -.530E+02   0.619E+02 0.204E+01 0.523E+02   -.124E-01 0.268E+01 0.619E+00   -.147E+00 0.207E+00 0.450E-01
   -.963E+01 -.157E+02 -.385E+02   0.127E+02 0.166E+02 0.382E+02   -.290E+01 -.842E+00 0.307E+00   -.218E-01 0.949E-01 0.903E-02
   -.352E+02 -.327E+02 -.312E+02   0.325E+02 0.351E+02 0.308E+02   0.285E+01 -.243E+01 0.406E+00   -.169E+00 0.412E-01 -.193E-01
   0.109E+03 -.197E+02 0.104E+02   -.112E+03 0.202E+02 -.106E+02   0.340E+01 -.615E+00 0.139E+00   0.187E+00 0.115E+00 0.228E-01
   -.173E+02 0.468E+02 -.101E+03   0.178E+02 -.495E+02 0.102E+03   -.590E+00 0.268E+01 -.141E+01   0.727E-01 0.796E-01 0.205E-02
   -.119E+03 0.240E+02 0.796E+02   0.122E+03 -.234E+02 -.801E+02   -.329E+01 -.878E+00 0.468E+00   -.328E+00 0.561E+00 0.158E+00
   -.123E+02 0.262E+03 0.783E+02   0.123E+02 -.294E+03 -.841E+02   0.144E+00 0.317E+02 0.584E+01   -.135E+00 0.261E-01 0.171E-01
   -.258E+03 -.164E+03 0.331E+02   0.292E+03 0.176E+03 -.274E+02   -.341E+02 -.128E+02 -.560E+01   -.701E-01 -.987E-01 -.906E-02
   0.294E+03 -.148E+03 0.111E+03   -.320E+03 0.167E+03 -.113E+03   0.266E+02 -.185E+02 0.248E+01   -.256E+00 -.105E+01 -.634E-01
   -.640E+02 0.318E+03 0.969E+02   0.627E+02 -.352E+03 -.983E+02   0.299E+01 0.345E+02 0.108E+01   -.118E+01 -.388E+00 0.235E+00
   -.194E+02 0.311E+03 0.635E+02   0.124E+02 -.346E+03 -.677E+02   0.765E+01 0.350E+02 0.402E+01   -.487E+00 -.545E-01 0.676E-01
   0.243E+03 -.172E+03 0.761E+02   -.270E+03 0.196E+03 -.820E+02   0.263E+02 -.235E+02 0.589E+01   -.216E-01 -.714E+00 0.156E-01
   -.259E+03 -.131E+03 -.217E+02   0.294E+03 0.139E+03 0.216E+02   -.348E+02 -.861E+01 0.265E+00   0.210E+00 -.801E-01 -.432E-01
   -.460E+02 -.290E+02 0.188E+02   0.466E+02 0.268E+02 -.190E+02   -.686E+00 0.203E+01 0.253E+00   0.649E-01 0.475E-01 -.793E-02
   -.124E+03 -.132E+03 -.346E+02   0.152E+03 0.146E+03 0.318E+02   -.276E+02 -.152E+02 0.282E+01   0.407E+00 0.167E+00 -.128E+00
   -.249E+02 -.197E+03 -.839E+02   0.454E+02 0.221E+03 0.900E+02   -.207E+02 -.249E+02 -.600E+01   0.185E+00 0.341E+00 -.102E+00
   0.344E+00 0.547E+02 -.346E+02   -.175E+02 -.462E+02 0.390E+02   0.175E+02 -.870E+01 -.447E+01   -.277E+00 0.186E+00 0.466E-01
   -.688E+01 0.987E+02 0.230E+03   0.115E+02 -.131E+03 -.244E+03   -.435E+01 0.321E+02 0.131E+02   -.384E+00 0.110E+00 -.461E-02
   0.121E+03 0.107E+03 0.212E+03   -.120E+03 -.137E+03 -.216E+03   0.806E-03 0.299E+02 0.431E+01   -.947E+00 0.468E+00 -.157E-01
   0.263E+02 -.613E+02 -.273E+03   -.479E+02 0.808E+02 0.292E+03   0.220E+02 -.197E+02 -.191E+02   -.247E+00 0.214E+00 0.467E-01
   0.606E+01 0.316E+02 0.575E+02   0.853E+01 -.227E+02 -.567E+02   -.146E+02 -.905E+01 -.732E+00   -.267E-02 0.205E+00 0.141E-02
   0.659E+02 0.309E+02 0.270E+02   -.688E+02 -.334E+02 -.271E+02   0.277E+01 0.229E+01 0.280E-01   0.143E+00 0.123E+00 0.109E-01
   0.189E+03 -.805E+02 0.430E+02   -.216E+03 0.945E+02 -.472E+02   0.265E+02 -.139E+02 0.408E+01   0.397E+00 -.321E+00 0.107E+00
   -.135E+03 -.137E+03 -.195E+03   0.162E+03 0.157E+03 0.208E+03   -.270E+02 -.194E+02 -.134E+02   -.104E-01 -.218E+00 0.325E-02
   0.120E+03 -.132E+03 0.198E+03   -.152E+03 0.145E+03 -.212E+03   0.313E+02 -.128E+02 0.143E+02   -.546E-02 0.649E-01 0.520E-02
   -.207E+02 0.271E+03 0.119E+03   0.282E+02 -.306E+03 -.126E+03   -.764E+01 0.345E+02 0.698E+01   0.313E-01 0.300E-01 0.108E-01
   -.128E+02 0.215E+03 0.144E+03   0.160E+02 -.249E+03 -.152E+03   -.343E+01 0.349E+02 0.801E+01   0.153E+00 -.418E-01 0.133E-01
   0.153E+03 -.172E+03 0.242E+03   -.186E+03 0.186E+03 -.255E+03   0.321E+02 -.136E+02 0.133E+02   0.552E-01 0.112E-01 0.183E-01
   -.137E+03 -.164E+03 -.270E+03   0.164E+03 0.179E+03 0.289E+03   -.270E+02 -.145E+02 -.194E+02   -.136E+00 -.366E-01 -.342E-01
   0.484E+02 -.699E+02 0.388E+02   -.475E+02 0.720E+02 -.393E+02   -.674E+00 -.189E+01 0.554E+00   -.446E+00 -.282E+00 -.857E-01
   -.460E+02 -.271E+02 -.100E+03   0.453E+02 0.280E+02 0.105E+03   0.709E+00 -.116E+01 -.472E+01   -.127E+00 0.146E+00 0.113E-01
   -.244E+03 -.268E+02 0.166E+03   0.274E+03 0.432E+02 -.178E+03   -.298E+02 -.170E+02 0.124E+02   -.132E+00 0.468E+00 0.784E-01
   0.266E+03 -.483E+02 -.547E+01   -.301E+03 0.560E+02 0.716E+01   0.353E+02 -.783E+01 -.175E+01   0.364E+00 0.970E-01 0.784E-01
   -.769E+01 0.178E+03 -.227E+03   0.807E+01 -.211E+03 0.241E+03   -.562E+00 0.327E+02 -.140E+02   0.164E+00 0.100E+00 -.871E-02
   -.497E+02 0.161E+03 -.287E+03   0.462E+02 -.191E+03 0.307E+03   0.340E+01 0.297E+02 -.202E+02   0.322E-01 0.138E+00 0.274E-01
   0.245E+03 -.593E+02 0.247E+02   -.278E+03 0.719E+02 -.266E+02   0.334E+02 -.129E+02 0.190E+01   0.245E+00 0.190E+00 0.155E-01
   -.272E+03 0.831E+00 0.189E+03   0.304E+03 0.109E+02 -.198E+03   -.318E+02 -.135E+02 0.865E+01   -.506E-01 0.124E+01 0.109E+00
   -.746E+02 0.829E+02 0.478E+02   0.766E+02 -.849E+02 -.498E+02   -.128E+01 0.146E+01 0.178E+01   -.538E+00 0.392E+00 0.173E+00
   0.581E+02 -.323E+03 -.405E+03   -.566E+02 0.344E+03 0.420E+03   -.116E+01 -.224E+02 -.139E+02   -.435E+00 0.742E+00 -.230E+00
   0.498E+02 0.727E+02 -.147E+03   -.545E+02 -.758E+02 0.122E+03   0.473E+01 0.297E+01 0.252E+02   -.462E-01 0.622E-01 -.345E-01
   -.330E+02 0.156E+02 -.618E+03   0.438E+02 -.102E+02 0.678E+03   -.107E+02 -.540E+01 -.597E+02   -.606E-01 0.526E-01 -.792E-01
   0.104E+02 -.290E+02 0.442E+02   0.128E-12 0.238E-12 -.455E-12   -.432E+01 0.257E+02 -.448E+02   -.601E+01 0.327E+01 0.643E+00

 POSITION                                       TOTAL-FORCE (eV/Angst)
      0.02987      1.91511      7.68878         0.055369      0.406565     -0.113373
      1.01209      5.74154      8.28432        -0.116938      0.048325      0.016916
     -1.39264      5.69199      8.20101         0.005315      0.039419     -0.002549
      7.19257      0.61992      7.97128         0.243384      0.474546      0.082792
      3.28716      5.42593      7.97004        -0.460475      0.021543      0.009005
      1.16840      0.20775      8.28951        -0.054683      0.143570     -0.003702
     -4.45967      9.20702      8.61596         0.128505      0.085119      0.003854
     -1.60492     11.72918      7.69136         0.618328      0.384832      0.160788
     -5.68483     11.24394      8.76739        -0.104266      0.146105     -0.013947
      2.45256      7.60470      8.62755        -0.105005     -0.017893      0.050450
      0.62399     11.57235      7.91632         0.170380      0.083101     -0.052360
     -2.91064      7.50831      8.48331         0.046104     -0.002501      0.014314
      8.47656      2.51040      8.28149         0.016571      0.279743     -0.001867
      9.56579      4.64011      8.09534         0.079832      0.181694      0.002480
      5.48525      5.34067      7.51144        -0.035259     -0.070792      0.029989
     14.19563      0.07438      7.91122         0.088518      0.213640     -0.066891
     11.83920      5.01925      8.02432         0.043428      0.033884      0.030811
      9.51389      0.49254      8.67430         0.106725      0.058079      0.072372
      3.85935      9.37782      8.58297        -0.112834      0.089117      0.052775
      5.25760     11.38931      8.60190         0.083881      0.149691     -0.028226
      2.79031     11.57467      8.54224         0.085484     -0.017912     -0.000069
     10.23218      6.84591      8.31400         0.039939      0.069476      0.013577
      7.51727     11.21762      8.90272         0.039615      0.074027     -0.025968
      4.74892      7.41350      7.88642        -0.144029      0.264474      0.088975
     -0.15866      5.14929      8.15828         0.019584     -0.025191     -0.024757
      1.18023      1.61490      8.01454         0.232862     -0.272231      0.100001
     -1.71629     13.00793      7.76520        -0.220961     -0.757836     -0.246822
      4.37946      4.67743      7.70865         0.505969      0.285651     -0.096977
      2.07747      4.92889      8.06628         0.195023     -0.017987     -0.014408
      7.25784      1.91914      7.99598        -0.006828     -0.215866      0.066875
     -5.53326     12.61945      8.50212         0.057861     -0.088852      0.066126
      7.61356     12.52826      8.32607        -0.016441     -0.086654      0.061862
     -4.57196     10.55963      8.66282         0.088512     -0.160585     -0.023537
     -3.13421      8.77948      8.70756        -0.006344     -0.050214      0.033584
      1.18883      7.09869      8.63561         0.165805     -0.049913     -0.005121
      1.78354     10.93217      7.92258        -0.124398      0.047999     -0.013318
     -0.54358     10.92306      7.70156        -0.664079      0.147178     -0.108600
      2.70302      8.83662      9.03941         0.083757      0.033783     -0.019839
     -1.61066      7.05360      8.45117        -0.027541     -0.041185     -0.001966
     11.57862      6.38844      8.28310        -0.036108     -0.032942     -0.021546
      8.50228      3.82576      8.10849        -0.012308     -0.154768      0.017806
      9.53969      1.79389      8.79255        -0.005759      0.003234     -0.033888
      5.29201     12.57535      7.92806        -0.165122     -0.148026      0.024958
     -2.38123      4.83119      7.97343        -0.038744     -0.014478     -0.007303
     10.84378      4.17655      7.87069        -0.115539     -0.033078      0.033760
     14.34732      1.40225      7.47314        -0.276300     -0.298905      0.012859
      2.81532     12.80013      9.02427        -0.071298     -0.010036     -0.000086
      0.60755     12.93903      8.16180        -0.224159     -0.077389     -0.053359
      3.97728     10.78503      8.68395        -0.084083     -0.107219     -0.019398
      4.85779      8.74116      7.99201         0.033609     -0.161404     -0.017365
      9.25491      5.96744      8.24999        -0.027853     -0.062661      0.015245
      8.59794     10.52624      9.14081        -0.025871     -0.048195      0.061717
      6.26649     10.76244      9.16533        -0.016700     -0.085164      0.013864
     10.01062      8.16942      8.41517        -0.035592     -0.023314      0.009832
      5.76126      6.63089      7.51347        -0.135695     -0.494945     -0.072656
      3.48988      6.81944      8.14158         0.226863     -0.099447     -0.051876
     -0.34213      8.50502      9.10386        -0.015607     -0.038113     -0.008727
     -0.46370      7.18995     11.48320        -0.007432     -0.034523     -0.199185
     -0.26159      7.29389     12.60207         0.033026      0.035425      0.202097
    total drift:                                0.081815      0.000360     -0.000764

  FREE ENERGIE OF THE ION-ELECTRON SYSTEM (eV)
  free  energy   TOTEN  =      -490.38049599 eV

  energy  without entropy=     -490.38049599  energy(sigma->0) =     -490.38049599

 total charge

[...]

 magnetization (x)

# of ion       s       p       d       tot
    1       -0.001  -0.008   0.000  -0.009
    2       -0.000   0.000   0.000   0.000
    3       -0.000  -0.000   0.000  -0.000
    4        0.000   0.001   0.000   0.001
    5        0.000   0.000   0.000   0.000
    6       -0.001  -0.001   0.000  -0.002
    7        0.000   0.000   0.000   0.000
    8        0.002   0.005   0.000   0.007
    9        0.000  -0.000   0.000  -0.000
   10       -0.000   0.000   0.000   0.000
   11        0.000   0.000   0.000   0.001
   12       -0.000   0.000   0.000   0.000
   13        0.000   0.000   0.000   0.000
   14       -0.000   0.000   0.000   0.000
   15        0.001   0.002   0.000   0.002
   16       -0.000  -0.001   0.000  -0.002
   17       -0.000  -0.000   0.000  -0.000
   18        0.000   0.000   0.000   0.000
   19       -0.000  -0.000   0.000  -0.000
   20       -0.000  -0.000   0.000  -0.000
   21        0.000   0.000   0.000   0.000
   22        0.000   0.000   0.000   0.000
   23        0.000  -0.000   0.000  -0.000
   24        0.000   0.000   0.000   0.000
   25       -0.000  -0.000   0.000  -0.000
   26       -0.001  -0.001   0.000  -0.002
   27        0.001   0.001   0.000   0.002
   28        0.000   0.000   0.000   0.001
   29        0.000  -0.000   0.000  -0.000
   30        0.000   0.000   0.000   0.000
   31       -0.000  -0.000   0.000  -0.000
   32       -0.000  -0.000   0.000  -0.000
   33        0.000   0.000   0.000   0.000
   34        0.000   0.000   0.000   0.000
   35       -0.000  -0.000   0.000  -0.000
   36        0.000   0.000   0.000   0.000
   37        0.000   0.001   0.000   0.001
   38       -0.000   0.000   0.000   0.000
   39       -0.000   0.000   0.000  -0.000
   40        0.000   0.000   0.000   0.000
   41       -0.000   0.000   0.000   0.000
   42        0.000   0.000   0.000   0.000
   43       -0.000  -0.000   0.000  -0.000
   44        0.000   0.000   0.000   0.000
   45       -0.000   0.000   0.000   0.000
   46       -0.001  -0.001   0.000  -0.002
   47        0.000   0.000   0.000   0.000
   48        0.000   0.000   0.000   0.000
   49       -0.000  -0.000   0.000  -0.000
   50        0.000   0.000   0.000   0.000
   51        0.000   0.000   0.000   0.000
   52       -0.000  -0.000   0.000  -0.000
   53        0.000  -0.000   0.000  -0.000
   54        0.000   0.000   0.000   0.000
   55        0.000   0.000   0.000   0.000
   56        0.000   0.000   0.000   0.000
   57        0.000   0.000   0.000   0.000
   58        0.000   0.000   0.000   0.000
   59        0.000   0.000   0.000   0.000
tot          0.000  -0.001   0.000  -0.001

 BZINTS: Fermi energy: -3.229807;280.000000 electrons
         Band energy:***********;  BLOECHL correction:  0.000000