 vasp.5.4.4.18Apr17-6-g9f103f2a35 (build Nov  8 2022 18:58:45) complex
 executed on             LinuxGNU date 2023.04.13  07:12:11

 INCAR:
 POTCAR:    PAW_PBE C 08Apr2002
 POTCAR:    PAW_PBE N 08Apr2002
 POTCAR:    PAW_PBE Ge_d 03Jul2007
 POTCAR:    PAW_PBE C 08Apr2002
 POTCAR:    PAW_PBE O 08Apr2002
 POTCAR:    PAW_PBE C 08Apr2002
   VRHFIN =C: s2p2

   TITEL  = PAW_PBE C 08Apr2002
   POMASS =   12.011; ZVAL   =    4.000    mass and valenz
   ENMAX  =  400.000; ENMIN  =  300.000 eV

[...]

   TITEL  = PAW_PBE Ge_d 03Jul2007
   POMASS =   72.610; ZVAL   =   14.000    mass and valenz
   ENMAX  =  310.294; ENMIN  =  232.720 eV

[...]

   TITEL  = PAW_PBE O 08Apr2002
   POMASS =   16.000; ZVAL   =    6.000    mass and valenz
   ENMAX  =  400.000; ENMIN  =  300.000 eV

 Optimization of the real space projectors (new method)

 maximal supplied QI-value         = 25.13
 optimisation between [QCUT,QGAM] = [ 10.56, 21.36] = [ 31.20,127.80] Ry
 Optimized for a Real-space Cutoff    1.24 Angstroem

   l    n(q)    QCUT    max X(q) W(low)/X(q) W(high)/X(q)  e(spline)
   0      8    10.556   115.676    0.42E-03    0.71E-03    0.20E-06
   0      8    10.556    87.132    0.41E-03    0.71E-03    0.20E-06
   1      7    10.556     4.429    0.22E-03    0.39E-03    0.12E-06
   1      7    10.556     2.733    0.16E-03    0.27E-03    0.14E-06
 Optimization of the real space projectors (new method)

[...]

   l    n(q)    QCUT    max X(q) W(low)/X(q) W(high)/X(q)  e(spline)
   0      8    10.556   115.676    0.42E-03    0.71E-03    0.20E-06
   0      8    10.556    87.132    0.41E-03    0.71E-03    0.20E-06
   1      7    10.556     4.429    0.22E-03    0.39E-03    0.12E-06
   1      7    10.556     2.733    0.16E-03    0.27E-03    0.14E-06
 Optimization of the real space projectors (new method)

 maximal supplied QI-value         = 24.76
 optimisation between [QCUT,QGAM] = [ 10.64, 21.29] = [ 31.73,126.92] Ry
 Optimized for a Real-space Cutoff    1.24 Angstroem

   l    n(q)    QCUT    max X(q) W(low)/X(q) W(high)/X(q)  e(spline)
   0      8    10.645    20.381    0.39E-03    0.65E-03    0.15E-06
   0      8    10.645    15.268    0.42E-03    0.70E-03    0.17E-06
   1      7    10.645     5.964    0.38E-03    0.66E-03    0.17E-06
   1      7    10.645     5.382    0.31E-03    0.55E-03    0.16E-06
  PAW_PBE C 08Apr2002                   :
  PAW_PBE N 08Apr2002                   :
  PAW_PBE Ge_d 03Jul2007                :
  PAW_PBE C 08Apr2002                   :
  PAW_PBE O 08Apr2002                   :

 POSCAR: POSCAR-c3n4
  positions in direct lattice
  velocities in cartesian coordinates
 exchange correlation table for  LEXCH =        8
   RHO(1)=    0.500       N(1)  =     2000
   RHO(2)=  100.500       N(2)  =     4000

 ion  position               nearest neighbor table
   1  0.081  0.221  0.397-  46 1.31  26 1.38  25 1.45
   2  0.269  0.340  0.280-  29 1.30  35 1.40  25 1.40
   3  0.127  0.438  0.304-  44 1.30  39 1.38  25 1.43
   4  0.437  0.094  0.663-  30 1.30  27 1.40  48 1.40
   5  0.420  0.273  0.328-  28 1.31  29 1.35  56 1.42
   6  0.155  0.190  0.569-  31 1.32  26 1.34  32 1.38
   7  0.075  0.749  0.527-  54 1.33  33 1.37  34 1.38
   8  0.219  0.882  0.680-  33 1.29  37 1.35  27 1.51
   9  0.222  0.101  0.705-  52 1.34  31 1.35  27 1.41
  10  0.441  0.497  0.385-  35 1.30  38 1.37  56 1.40
  11  0.398  0.847  0.687-  37 1.30  36 1.35  48 1.44
  12  0.105  0.592  0.424-  34 1.32  39 1.35  40 1.36
  13  0.613  0.242  0.546-  42 1.33  30 1.37  55 1.37
  14  0.807  0.493  0.245-  41 1.30  51 1.39  45 1.40
  15  0.625  0.288  0.338-  41 1.30  28 1.34  55 1.56
  16  0.936  0.007  0.481-  43 1.31  46 1.35  32 1.41
  17  0.018  0.545  0.233-  45 1.30  44 1.36  40 1.43
  18  0.615  0.045  0.605-  47 1.31  42 1.34  48 1.41
  19  0.577  0.614  0.542-  50 1.32  38 1.39  49 1.40
  20  0.786  0.830  0.593-  53 1.32  43 1.35  49 1.43
  21  0.580  0.821  0.634-  36 1.33  47 1.35  49 1.40
  22  0.936  0.653  0.373-  51 1.30  54 1.34  40 1.43
  23  0.992  0.983  0.675-  52 1.33  53 1.33  32 1.41
  24  0.594  0.432  0.469-  50 1.33  55 1.38  56 1.38
  25  0.130  0.309  0.297-   2 1.40   3 1.43   1 1.45
  26  0.171  0.282  0.487-   6 1.34   1 1.38  57 2.26
  27  0.305  0.039  0.714-   4 1.40   9 1.41   8 1.51
  28  0.489  0.208  0.306-   5 1.31  15 1.34
  29  0.291  0.234  0.286-   2 1.30   5 1.35
  30  0.506  0.220  0.616-   4 1.30  13 1.37
  31  0.259  0.213  0.636-   6 1.32   9 1.35
  32  0.026  0.061  0.574-   6 1.38  23 1.41  16 1.41
  33  0.128  0.857  0.604-   8 1.29   7 1.37
  34  0.131  0.662  0.519-  12 1.32   7 1.38
  35  0.363  0.487  0.300-  10 1.30   2 1.40
  36  0.450  0.760  0.674-  21 1.33  11 1.35
  37  0.266  0.796  0.714-  11 1.30   8 1.35
  38  0.463  0.587  0.473-  10 1.37  19 1.39  57 2.16
  39  0.147  0.498  0.409-  12 1.35   3 1.38  57 2.12
  40  0.029  0.605  0.340-  12 1.36  17 1.43  22 1.43
  41  0.717  0.357  0.260-  15 1.30  14 1.30
  42  0.680  0.169  0.547-  13 1.33  18 1.34
  43  0.820  0.880  0.488-  16 1.31  20 1.35
  44  0.091  0.477  0.214-   3 1.30  17 1.36
  45  0.914  0.523  0.168-  17 1.30  14 1.40
  46  0.971  0.091  0.389-   1 1.31  16 1.35
  47  0.668  0.961  0.607-  18 1.31  21 1.35
  48  0.482  0.995  0.654-   4 1.40  18 1.41  11 1.44
  49  0.638  0.737  0.609-  19 1.40  21 1.40  20 1.43
  50  0.645  0.544  0.537-  19 1.32  24 1.33
  51  0.817  0.597  0.318-  22 1.30  14 1.39
  52  0.094  0.018  0.749-  23 1.33   9 1.34
  53  0.861  0.871  0.686-  20 1.32  23 1.33
  54  0.977  0.743  0.460-   7 1.33  22 1.34
  55  0.644  0.340  0.462-  13 1.37  24 1.38  15 1.56
  56  0.483  0.398  0.396-  24 1.38  10 1.40   5 1.42
  57  0.261  0.507  0.554-  39 2.12  38 2.16  26 2.26
  58  0.299  0.450  0.840-  59 1.14
  59  0.267  0.454  0.930-  58 1.14

IMPORTANT INFORMATION: All symmetrisations will be switched off!
NOSYMM: (Re-)initialisation of all symmetry stuff for point group C_1.

 KPOINTS: K-Points

Automatic generation of k-mesh.
Space group operators:
 irot       det(A)        alpha          n_x          n_y          n_z        tau_x        tau_y        tau_z
    1     1.000000     0.000002     1.000000     0.000000     0.000000     0.000000     0.000000     0.000000

 Subroutine IBZKPT returns following result:

 Found      4 irreducible k-points:

 Following reciprocal coordinates:
            Coordinates               Weight
  0.000000  0.000000  0.000000      1.000000
  0.500000  0.000000  0.000000      1.000000
  0.000000  0.500000  0.000000      1.000000
  0.500000  0.500000  0.000000      1.000000

 Following cartesian coordinates:
            Coordinates               Weight
  0.000000  0.000000  0.000000      1.000000
  0.036415  0.021552  0.000000      1.000000
  0.000594  0.043104  0.000000      1.000000
  0.037009  0.064656  0.000000      1.000000

 SYSTEM =  unknown system
 POSCAR =  POSCAR-c3n4

 Startparameter for this run:
   NWRITE =      2    write-flag & timer
   PREC   = normal    normal or accurate (medium, high low for compatibility)
   ISTART =      0    job   : 0-new  1-cont  2-samecut
   ICHARG =      2    charge: 1-file 2-atom 10-const
   ISPIN  =      2    spin polarized calculation?
   LNONCOLLINEAR =      F non collinear calculations
   LSORBIT =      F    spin-orbit coupling
   INIWAV =      1    electr: 0-lowe 1-rand  2-diag
   LASPH  =      F    aspherical Exc in radial PAW
   METAGGA=      F    non-selfconsistent MetaGGA calc.

 Electronic Relaxation 1
   ENCUT  =  440.0 eV  32.34 Ry    5.69 a.u.  18.94 18.59 20.52*2*pi/ulx,y,z
   ENINI  =  440.0     initial cutoff
   ENAUG  =  644.9 eV  augmentation charge cutoff
   NELM   =     50;   NELMIN=  2; NELMDL= -5     # of ELM steps
   EDIFF  = 0.1E-03   stopping-criterion for ELM
   LREAL  =      T    real-space projection
   NLSPLINE    = F    spline interpolate recip. space projectors
   LCOMPAT=      F    compatible to vasp.4.4
   GGA_COMPAT  = T    GGA compatible to vasp.4.4-vasp.4.6
   LMAXPAW     = -100 max onsite density
   LMAXMIX     =    2 max onsite mixed and CHGCAR
   VOSKOWN=      0    Vosko Wilk Nusair interpolation
   ROPT   =   -0.00050  -0.00050  -0.00050  -0.00050
   ROPT   =   -0.00050
 Ionic relaxation
   EDIFFG = -.1E+00   stopping-criterion for IOM
   NSW    =    400    number of steps for IOM
   NBLOCK =      1;   KBLOCK =    400    inner block; outer block
   IBRION =      2    ionic relax: 0-MD 1-quasi-New 2-CG
   NFREE  =      1    steps in history (QN), initial steepest desc. (CG)
   ISIF   =      2    stress and relaxation
   IWAVPR =     11    prediction:  0-non 1-charg 2-wave 3-comb
   ISYM   =      0    0-nonsym 1-usesym 2-fastsym
   LCORR  =      T    Harris-Foulkes like correction to forces

   POTIM  = 0.2000    time-step for ionic-motion
   TEIN   =    0.0    initial temperature
   TEBEG  =    0.0;   TEEND  =   0.0 temperature during run
   SMASS  =  -3.00    Nose mass-parameter (am)
   estimated Nose-frequenzy (Omega)   =  0.10E-29 period in steps =****** mass=  -0.280E-26a.u.
   SCALEE = 1.0000    scale energy and forces
   NPACO  =    256;   APACO  = 16.0  distance and # of slots for P.C.
   PSTRESS=    0.0 pullay stress

  Mass of Ions in am
   POMASS =  12.01 14.00 72.61 12.01 16.00
  Ionic Valenz
   ZVAL   =   4.00  5.00 14.00  4.00  6.00
  Atomic Wigner-Seitz radii
  virtual crystal weights
   VCA    =   1.00  1.00  1.00  1.00  1.00
   NELECT =     280.0000    total number of electrons
   NUPDOWN=      -1.0000    fix difference up-down

 DOS related values:
   EMIN   =  10.00;   EMAX   =-10.00  energy-range for DOS
   EFERMI =   0.00
   ISMEAR =     0;   SIGMA  =   0.10  broadening in eV -4-tet -1-fermi 0-gaus

 Electronic relaxation 2 (details)
   IALGO  =     58    algorithm
   LDIAG  =      T    sub-space diagonalisation (order eigenvalues)
   LSUBROT=      F    optimize rotation matrix (better conditioning)
   TURBO    =      0    0=normal 1=particle mesh
   IRESTART =      0    0=no restart 2=restart with 2 vectors
   NREBOOT  =      0    no. of reboots
   NMIN     =      0    reboot dimension
   EREF     =   0.00    reference energy to select bands
   IMIX   =      4    mixing-type and parameters
     AMIX     =   0.05;   BMIX     =  0.00
     AMIX_MAG =   0.20;   BMIX_MAG =  0.00
     AMIN     =   0.05
     WC   =   100.;   INIMIX=   1;  MIXPRE=   1;  MAXMIX= -45

 Intra band minimization:
   WEIMIN = 0.0010     energy-eigenvalue tresh-hold
   EBREAK =  0.15E-06  absolut break condition
   DEPER  =   0.30     relativ break condition

   TIME   =   0.40     timestep for ELM

  volume/ion in A,a.u.               =      20.90       141.06
  Fermi-wavevector in a.u.,A,eV,Ry     =   0.998716  1.887300 13.570919  0.997434
  Thomas-Fermi vector in A             =   2.130958

 Write flags
   LWAVE        =      F    write WAVECAR
   LDOWNSAMPLE  =      F    k-point downsampling of WAVECAR
   LCHARG       =      F    write CHGCAR
   LVTOT        =      F    write LOCPOT, total local potential
   LVHAR        =      F    write LOCPOT, Hartree potential only
   LELF         =      F    write electronic localiz. function (ELF)
   LORBIT       =      0    0 simple, 1 ext, 2 COOP (PROOUT), +10 PAW based schemes

 Dipole corrections
[...]

 E-fermi :  -0.7270     XC(G=0):  -5.6121     alpha+bet : -4.5380

[...]

 spin component 2

[...]

 k-point     4 :       0.5000    0.5000    0.0000
  band No.  band energies     occupation
      1     -26.3207      1.00000
      2     -26.3061      1.00000
      3     -26.2665      1.00000
      4     -26.2524      1.00000
      5     -26.2272      1.00000
      6     -25.2499      1.00000
      7     -24.7242      1.00000
      8     -24.5413      1.00000
      9     -24.3016      1.00000
     10     -24.1668      1.00000
     11     -23.4860      1.00000
     12     -23.1683      1.00000
     13     -23.0686      1.00000
     14     -22.7373      1.00000
     15     -22.3549      1.00000
     16     -22.2156      1.00000
     17     -22.1188      1.00000
     18     -22.0581      1.00000
     19     -21.4579      1.00000
     20     -21.2857      1.00000
     21     -21.0125      1.00000
     22     -20.9241      1.00000
     23     -20.6174      1.00000
     24     -20.4908      1.00000
     25     -20.2549      1.00000
     26     -20.1294      1.00000
     27     -20.0400      1.00000
     28     -19.9805      1.00000
     29     -19.9359      1.00000
     30     -19.7631      1.00000
     31     -19.4255      1.00000
     32     -19.1574      1.00000
     33     -19.0575      1.00000
     34     -18.9472      1.00000
     35     -18.8483      1.00000
     36     -18.8034      1.00000
     37     -18.5681      1.00000
     38     -18.3461      1.00000
     39     -15.9777      1.00000
     40     -15.6021      1.00000
     41     -15.3891      1.00000
     42     -15.2544      1.00000
     43     -15.0403      1.00000
     44     -14.8741      1.00000
     45     -14.7568      1.00000
     46     -14.6282      1.00000
     47     -13.9368      1.00000
     48     -13.7485      1.00000
     49     -13.5134      1.00000
     50     -13.4591      1.00000
     51     -12.9648      1.00000
     52     -12.7332      1.00000
     53     -12.5595      1.00000
     54     -12.4676      1.00000
     55     -12.3831      1.00000
     56     -12.3123      1.00000
     57     -12.2140      1.00000
     58     -12.1701      1.00000
     59     -11.9203      1.00000
     60     -11.7032      1.00000
[...]
    158       2.4970      0.00000
    159       2.6000      0.00000
    160       2.7248      0.00000
    161       2.9260      0.00000
    162       3.0921      0.00000
    163       3.2693      0.00000
    164       3.3109      0.00000
    165       3.6612      0.00000
    166       3.7975      0.00000
    167       3.9969      0.00000
    168       4.2634      0.00000
    169       4.4024      0.00000
    170       4.5513      0.00000
    171       4.6147      0.00000
    172       4.7156      0.00000

[...]

 soft charge-density along one line, spin component           2
         0         1         2         3         4         5         6         7         8         9
 total charge-density along one line

------------------------ aborting loop because EDIFF is reached ----------------------------------------

         DFTD3 V3.0 Rev 1
 Edisp (eV)   -4.90237

 E6    (eV) :    -3.4843
 E8    (eV) :    -1.4181
 % E8        : 28.93

  FORCE on cell =-STRESS in cart. coord.  units (eV):
  Direction    XX          YY          ZZ          XY          YZ          ZX
  Alpha Z   302.14146   302.14146   302.14146
  Ewald   14238.06300  9939.05951-14465.24571 -1034.63396  1152.05963   501.61078
  Hartree 17406.59646 14012.92538 -8449.21940  -749.07704   827.24660   132.05171
  E(xc)   -1177.22041 -1179.45279 -1182.14689    -1.13588     1.29360     1.78960
  Local  -35298.62884-27657.25020 19147.76468  1759.23592 -1960.29818  -590.55962
  n-local  -485.06203  -484.95792  -495.02569    -1.65608     0.41652     0.22994
  augment   152.05927   152.70219   153.79782     0.66136     0.20336    -0.26524
  Kinetic  4883.63847  4915.01197  4981.53014    27.53191   -21.39679   -45.47125
  Fock        0.00000     0.00000     0.00000     0.00000     0.00000     0.00000
  vdW        -1.18430    -1.38713    -0.86452    -0.03726     0.08981     0.36823
  Total      20.40307    -1.20755    -7.26811     0.88896    -0.38546    -0.24584
  in kB      26.50636    -1.56877    -9.44226     1.15488    -0.50076    -0.31938

 VOLUME and BASIS-vectors are now :
  energy-cutoff  :      440.00
  volume of cell :     1233.26
      direct lattice vectors                 reciprocal lattice vectors
    11.074739388 -0.152592379  0.000000000     0.091037962  0.053880143 -0.000000000
    -5.537369694  9.356152795  0.000000000     0.001484766  0.107760286 -0.000000000
     0.000000000  0.000000000 12.000000000    -0.000000000 -0.000000000  0.083333333

  length of vectors
    11.075790579 10.871985019 12.000000000     0.105787430  0.107770514  0.083333333

 FORCES acting on ions:
    Electron-Ion                     Ewald-Force                    Non-Local-Force
   0.117E+03 0.896E+02 0.163E+03   -.118E+03 -.910E+02 -.162E+03   0.114E+01 0.144E+01 -.714E+00
   -.635E+01 0.318E+02 0.403E+03   0.853E+01 -.309E+02 -.404E+03   -.218E+01 -.780E+00 0.101E+01
   0.290E+02 0.810E+01 0.245E+03   -.297E+02 -.681E+01 -.246E+03   0.649E+00 -.132E+01 0.142E+01
   -.492E+02 -.585E+02 -.232E+03   0.492E+02 0.614E+02 0.232E+03   0.471E-01 -.297E+01 0.589E+00
   -.267E+02 0.136E+03 0.242E+03   0.265E+02 -.137E+03 -.245E+03   0.184E+00 0.177E+01 0.268E+01
   0.331E+02 -.195E+02 -.116E+03   -.323E+02 0.217E+02 0.116E+03   -.753E+00 -.226E+01 -.477E+00
   0.576E+01 0.156E+02 -.585E+02   -.564E+01 -.164E+02 0.573E+02   -.968E-01 0.776E+00 0.112E+01
   0.304E+02 0.736E+02 -.267E+03   -.293E+02 -.764E+02 0.266E+03   -.106E+01 0.297E+01 0.124E+01
   -.312E+02 -.845E+02 -.326E+03   0.282E+02 0.842E+02 0.324E+03   0.282E+01 0.196E+00 0.171E+01
   -.559E+02 -.152E+03 0.203E+03   0.544E+02 0.154E+03 -.204E+03   0.146E+01 -.186E+01 0.143E+01
   -.373E+02 0.148E+02 -.250E+03   0.375E+02 -.175E+02 0.251E+03   -.157E+00 0.280E+01 -.122E+01
   0.558E+01 -.504E+02 0.568E+02   -.512E+01 0.513E+02 -.545E+02   -.522E+00 -.849E+00 -.231E+01
   -.102E+03 -.356E+02 -.978E+02   0.102E+03 0.330E+02 0.978E+02   -.497E-01 0.258E+01 0.455E-01
   0.886E+02 -.241E+02 0.324E+03   -.879E+02 0.268E+02 -.324E+03   -.602E+00 -.258E+01 0.464E-01
   -.135E+03 0.170E+03 0.166E+03   0.136E+03 -.171E+03 -.164E+03   -.129E+01 0.120E+01 -.180E+01
   0.655E+02 0.186E+02 0.135E+03   -.670E+02 -.200E+02 -.138E+03   0.153E+01 0.151E+01 0.251E+01
   -.471E+02 -.893E+02 0.306E+03   0.469E+02 0.889E+02 -.309E+03   0.132E+00 0.308E+00 0.354E+01
   -.725E+02 -.729E+02 -.970E+02   0.750E+02 0.742E+02 0.963E+02   -.257E+01 -.130E+01 0.709E+00
   -.202E+02 -.324E+02 -.104E+03   0.203E+02 0.301E+02 0.103E+03   -.155E+00 0.222E+01 0.106E+01
   -.197E+02 0.590E+02 -.119E+03   0.212E+02 -.565E+02 0.119E+03   -.158E+01 -.250E+01 0.563E+00
   -.167E+02 -.188E+02 -.183E+03   0.146E+02 0.202E+02 0.184E+03   0.206E+01 -.139E+01 -.569E+00
   0.372E+02 -.108E+03 0.141E+03   -.401E+02 0.108E+03 -.140E+03   0.293E+01 -.830E+00 -.123E+01
   0.832E+02 0.104E+02 -.283E+03   -.832E+02 -.125E+02 0.285E+03   0.826E-01 0.214E+01 -.230E+01
   -.769E+02 -.276E+02 -.325E+02   0.766E+02 0.283E+02 0.361E+02   0.353E+00 -.707E+00 -.360E+01
   0.139E+03 0.180E+03 0.440E+03   -.149E+03 -.193E+03 -.459E+03   0.103E+02 0.128E+02 0.188E+02
   0.367E+02 0.110E+01 -.359E+02   -.283E+02 0.228E+02 0.330E+02   -.845E+01 -.239E+02 0.290E+01
   -.536E+02 -.463E+02 -.443E+03   0.545E+02 0.431E+02 0.460E+03   -.932E+00 0.319E+01 -.168E+02
   -.744E+02 0.353E+03 0.385E+03   0.770E+02 -.380E+03 -.405E+03   -.258E+01 0.269E+02 0.200E+02
   -.271E+02 0.317E+03 0.426E+03   0.204E+02 -.350E+03 -.435E+03   0.674E+01 0.331E+02 0.834E+01
   0.658E+01 -.171E+03 -.262E+03   -.316E+02 0.197E+03 0.262E+03   0.251E+02 -.261E+02 -.727E+00
   -.986E+02 -.188E+03 -.266E+03   0.121E+03 0.216E+03 0.263E+03   -.220E+02 -.271E+02 0.319E+01
   0.947E+02 -.114E+02 -.105E+03   -.971E+02 0.988E+01 0.105E+03   0.230E+01 0.149E+01 0.907E-01
   0.873E+02 0.396E+02 -.924E+02   -.110E+03 -.214E+02 0.856E+02   0.229E+02 -.182E+02 0.679E+01
   -.436E+02 -.233E+01 -.174E+03   0.638E+02 0.152E+01 0.199E+03   -.202E+02 0.805E+00 -.256E+02
   -.571E+01 -.282E+03 0.493E+03   -.136E+02 0.307E+03 -.510E+03   0.193E+02 -.243E+02 0.162E+02
   -.747E+01 0.125E+03 -.345E+03   0.519E+01 -.158E+03 0.354E+03   0.229E+01 0.330E+02 -.873E+01
   0.565E+02 0.222E+03 -.437E+03   -.625E+02 -.254E+03 0.450E+03   0.600E+01 0.319E+02 -.124E+02
   0.319E+02 -.230E+03 0.950E+02   -.521E+02 0.246E+03 -.935E+02   0.202E+02 -.160E+02 -.142E+01
   0.489E+02 -.152E+02 0.813E+02   -.351E+02 0.809E+01 -.669E+02   -.138E+02 0.709E+01 -.144E+02
   -.203E+02 -.128E+03 0.234E+03   0.188E+02 0.132E+03 -.238E+03   0.146E+01 -.372E+01 0.441E+01
   -.787E+02 0.208E+03 0.411E+03   0.872E+02 -.222E+03 -.430E+03   -.852E+01 0.137E+02 0.189E+02
   -.234E+03 -.796E+02 0.126E+02   0.264E+03 0.899E+02 -.308E+02   -.295E+02 -.103E+02 0.181E+02
   0.984E+02 0.657E+02 0.283E+03   -.115E+03 -.832E+02 -.312E+03   0.165E+02 0.175E+02 0.281E+02
   -.515E+02 -.445E+01 0.515E+03   0.591E+02 -.767E+01 -.549E+03   -.763E+01 0.121E+02 0.341E+02
   0.539E+02 -.393E+02 0.553E+03   -.572E+02 0.322E+02 -.589E+03   0.324E+01 0.711E+01 0.362E+02
   0.185E+03 0.163E+03 0.392E+03   -.200E+03 -.177E+03 -.423E+03   0.156E+02 0.135E+02 0.311E+02
   -.117E+03 -.154E+03 -.109E+03   0.148E+03 0.165E+03 0.977E+02   -.317E+02 -.105E+02 0.112E+02
   -.684E+02 -.375E+02 -.221E+03   0.695E+02 0.351E+02 0.223E+03   -.116E+01 0.243E+01 -.130E+01
   -.277E+02 0.543E+02 -.276E+03   0.305E+02 -.603E+02 0.288E+03   -.278E+01 0.606E+01 -.119E+02
   -.202E+03 -.492E+02 -.248E+03   0.230E+03 0.583E+02 0.268E+03   -.274E+02 -.913E+01 -.201E+02
   0.223E+03 -.166E+03 0.281E+03   -.256E+03 0.173E+03 -.277E+03   0.328E+02 -.614E+01 -.414E+01
   0.805E+02 0.487E+02 -.579E+03   -.783E+02 -.651E+02 0.610E+03   -.219E+01 0.163E+02 -.315E+02
   0.388E+02 0.126E+03 -.498E+03   -.444E+02 -.143E+03 0.530E+03   0.563E+01 0.175E+02 -.316E+02
   0.123E+03 -.105E+03 0.654E+02   -.151E+03 0.125E+03 -.588E+02   0.277E+02 -.196E+02 -.671E+01
   -.205E+03 0.434E+01 -.662E+01   0.219E+03 0.229E+01 0.337E+01   -.146E+02 -.666E+01 0.324E+01
   -.462E+02 0.129E+01 0.166E+03   0.455E+02 -.389E+01 -.166E+03   0.730E+00 0.263E+01 -.307E+00
   0.215E+03 -.926E+02 -.673E+03   -.220E+03 0.925E+02 0.699E+03   0.484E+01 -.692E-02 -.265E+02
   -.678E+02 0.311E+01 -.800E+01   0.768E+02 -.431E+01 -.182E+02   -.905E+01 0.119E+01 0.262E+02
   0.682E+02 -.173E+02 -.299E+03   -.880E+02 0.197E+02 0.356E+03   0.198E+02 -.235E+01 -.568E+02
   -.433E+02 -.569E+02 -.223E+02   -.156E-12 0.369E-12 -.625E-12   0.433E+02 0.569E+02 0.223E+02

 POSITION                                       TOTAL-FORCE (eV/Angst)
     -0.32024      2.05184      4.75956         0.040565      0.011377      0.047572
      1.09750      3.13791      3.36060        -0.011539      0.028788      0.010007
     -1.01748      4.08164      3.64634         0.024570     -0.039542      0.022416
      4.32241      0.80868      7.95771        -0.003904     -0.014603      0.003370
      3.13666      2.49295      3.93472        -0.009131     -0.015991     -0.027270
      0.66034      1.75349      6.82459         0.028908     -0.006459      0.029145
     -3.31254      6.99436      6.32553        -0.014972      0.012498     -0.059898
     -2.45915      8.21739      8.16144         0.004076      0.019961      0.004074
      1.90271      0.91253      8.45876        -0.020453     -0.003987     -0.004727
      2.12575      4.58490      4.62254        -0.034842     -0.005155     -0.016871
     -0.28603      7.85938      8.24343        -0.011705     -0.006310     -0.030159
     -2.11754      5.52116      5.08681        -0.024261      0.042159     -0.006753
      5.44985      2.17020      6.55446        -0.021347      0.022505     -0.015143
      6.20786      4.49063      2.94084        -0.033758      0.012402      0.028893
      5.32625      2.59660      4.06034         0.023390      0.042661      0.009815
     10.33015     -0.07603      5.77095         0.026604     -0.023702      0.025870
     -2.81525      5.09052      2.79083        -0.005015      0.007519      0.019860
      6.56006      0.33009      7.25562        -0.006800     -0.000730     -0.015166
      2.98277      5.66062      6.49765         0.001509      0.010510      0.059653
      4.10723      7.65101      7.11985        -0.018734     -0.011381      0.015599
      1.87406      7.59879      7.60960        -0.009877     -0.012000     -0.009344
      6.75277      5.96852      4.46780        -0.043735      0.028164     -0.002411
      5.54690      9.04456      8.09645         0.038430      0.011980      0.049219
      4.18358      3.95230      5.62281         0.013459      0.000307      0.053698
     -0.26613      2.86757      3.56748         0.032235      0.003081     -0.028821
      0.33108      2.60933      5.83995        -0.013862     -0.039943     -0.000753
      3.16924      0.31263      8.57195        -0.024938     -0.006713      0.011455
      4.26332      1.87276      3.67392         0.004187      0.045082     -0.032711
      1.93030      2.14465      3.43095         0.012194      0.012624      0.006835
      4.38894      1.97998      7.39638        -0.010477     -0.021203     -0.002599
      1.68623      1.95395      7.63297         0.021544     -0.039522      0.011126
     -0.05380      0.56921      6.89548        -0.022861      0.009448     -0.023800
     -3.33476      8.00388      7.24574         0.004841      0.027012     -0.022274
     -2.21438      6.17282      6.22519         0.040449      0.007114      0.005332
      1.32322      4.49938      3.59910        -0.016538     -0.006872      0.007092
      0.77144      7.03941      8.08861         0.007754      0.001583     -0.050832
     -1.46531      7.41102      8.57177        -0.007863     -0.042640     -0.007632
      1.87957      5.41862      5.68084        -0.001977      0.008331      0.039083
     -1.12311      4.63582      4.90251         0.023849      0.003899      0.017157
     -3.02680      5.65306      4.08545        -0.025847     -0.039447     -0.052346
      5.96779      3.22927      3.12608         0.044494     -0.008227      0.034327
      6.58840      1.48029      6.56797         0.014393     -0.018661     -0.004792
      4.20687      8.11213      5.85924         0.003929      0.017825     -0.021801
     -1.63373      4.45089      2.56400         0.001964     -0.052443     -0.042964
      7.22885      4.75405      2.01465        -0.009046      0.006176     -0.037589
     10.25786      0.69689      4.66277         0.040260     -0.020990     -0.016887
      2.07128      8.89456      7.28807         0.005907      0.005973      0.032113
     -0.17339      9.23582      7.84493         0.009739      0.018636     -0.021632
      2.98030      6.79661      7.31095        -0.023512     -0.025344     -0.031293
      4.12361      4.99185      6.44391        -0.060240     -0.004186      0.009947
      5.74162      5.46551      3.81417         0.049869      0.044856     -0.026306
      0.94039      0.14748      8.99198         0.016026     -0.034451     -0.013488
      4.71408      8.01413      8.23284         0.021741      0.009516      0.032687
      6.70470      6.80200      5.52212         0.012704      0.025137     -0.049792
      5.25399      3.08003      5.54329        -0.021109     -0.001277     -0.003060
      3.15125      3.64505      4.75482         0.007358      0.029619      0.059388
      0.07913      4.70200      6.64031        -0.055008     -0.054510     -0.000684
      0.81739      4.16571     10.08088         0.007171     -0.012472     -0.053330
      0.44510      4.21006     11.15949        -0.020767      0.042017      0.087397
    total drift:                               -0.025149     -0.001872     -0.045563

  FREE ENERGIE OF THE ION-ELECTRON SYSTEM (eV)
  free  energy   TOTEN  =      -491.34032631 eV

  energy  without entropy=     -491.32199991  energy(sigma->0) =     -491.33116311

 d Force = 0.1518554E-02[ 0.132E-02, 0.172E-02]  d Energy = 0.1530433E-02-0.119E-04
 d Force =-0.2114845E+01[-0.211E+01,-0.212E+01]  d Ewald  =-0.2114845E+01 0.606E-06

 Conjugate gradient step on ions:
 trial-energy change:   -0.001530  1 .order   -0.001519   -0.001721   -0.001316
  (g-gl).g = 0.379E-02      g.g   = 0.405E-02  gl.gl    = 0.458E-02
 g(Force)  = 0.405E-02   g(Stress)= 0.000E+00 ortho     = 0.423E-03
 gamma     =   0.82724
 trial     =   0.39112
 opt step  =   1.56447  (harmonic =   1.65957) maximal distance =0.00469105
 next E    =  -491.342448   (d E  =  -0.00365)

 reached required accuracy - stopping structural energy minimisation