 vasp.5.4.4.18Apr17-6-g9f103f2a35 (build Sep 02 2021 13:24:58) complex

 executed on             LinuxIFC date 2023.01.15  13:02:10

 INCAR:
 POTCAR:    PAW_PBE C 08Apr2002
 POTCAR:    PAW_PBE N 08Apr2002
 POTCAR:    PAW_PBE C 08Apr2002
 POTCAR:    PAW_PBE Cr_pv 02Aug2007
 POTCAR:    PAW_PBE C 08Apr2002
   VRHFIN =C: s2p2

   TITEL  = PAW_PBE C 08Apr2002
   POMASS =   12.011; ZVAL   =    4.000    mass and valenz
   ENMAX  =  400.000; ENMIN  =  300.000 eV

[...]

   TITEL  = PAW_PBE C 08Apr2002
   POMASS =   12.011; ZVAL   =    4.000    mass and valenz
   ENMAX  =  400.000; ENMIN  =  300.000 eV

   TITEL  = PAW_PBE Cr_pv 02Aug2007
   POMASS =   51.996; ZVAL   =   12.000    mass and valenz
   ENMAX  =  265.681; ENMIN  =  199.261 eV

 Optimization of the real space projectors (new method)

 maximal supplied QI-value         = 25.13
 optimisation between [QCUT,QGAM] = [ 11.81, 23.88] = [ 39.08,159.64] Ry
 Optimized for a Real-space Cutoff    1.18 Angstroem

   l    n(q)    QCUT    max X(q) W(low)/X(q) W(high)/X(q)  e(spline)
   0      8    11.813   115.676    0.10E-03    0.16E-03    0.35E-06
   0      8    11.813    87.132    0.10E-03    0.16E-03    0.35E-06
   1      8    11.813     4.429    0.16E-03    0.13E-04    0.22E-06
   1      8    11.813     2.733    0.13E-03    0.10E-04    0.18E-06
 Optimization of the real space projectors (new method)

[...]

   l    n(q)    QCUT    max X(q) W(low)/X(q) W(high)/X(q)  e(spline)
   0      8    11.813   115.676    0.10E-03    0.16E-03    0.35E-06
   0      8    11.813    87.132    0.10E-03    0.16E-03    0.35E-06
   1      8    11.813     4.429    0.16E-03    0.13E-04    0.22E-06
   1      8    11.813     2.733    0.13E-03    0.10E-04    0.18E-06
 Optimization of the real space projectors (new method)

 maximal supplied QI-value         = 16.25
 optimisation between [QCUT,QGAM] = [ 11.86, 23.89] = [ 39.41,159.82] Ry
 Optimized for a Real-space Cutoff    1.33 Angstroem

   l    n(q)    QCUT    max X(q) W(low)/X(q) W(high)/X(q)  e(spline)
   1      9    11.864     3.262    0.48E-04    0.16E-03    0.14E-06
   1      9    11.864     5.741    0.74E-04    0.40E-03    0.35E-06
   2      9    11.864    60.438    0.17E-03    0.21E-03    0.26E-06
   2      9    11.864    55.380    0.17E-03    0.21E-03    0.27E-06
   0      9    11.864    80.273    0.40E-04    0.47E-04    0.12E-06
   0      9    11.864    36.654    0.35E-04    0.41E-04    0.11E-06
  PAW_PBE C 08Apr2002                   :
  PAW_PBE N 08Apr2002                   :
  PAW_PBE C 08Apr2002                   :
  PAW_PBE Cr_pv 02Aug2007               :

 POSCAR: POSCAR-clean
  positions in cartesian coordinates
 exchange correlation table for  LEXCH =        8
   RHO(1)=    0.500       N(1)  =     2000
   RHO(2)=  100.500       N(2)  =     4000

 ion  position               nearest neighbor table
   1  0.000  1.000  0.498-   2 1.42  60 1.42  70 1.43
   2  0.056  0.111  0.498-   1 1.42  13 1.42  15 1.43
   3  0.168  0.002  0.498-   4 1.42  62 1.43  60 1.43
   4  0.224  0.113  0.498-   3 1.42  15 1.42  17 1.44
   5  0.334  0.002  0.498-   6 1.42  62 1.43  64 1.43
   6  0.390  0.113  0.498-   5 1.42  19 1.42  17 1.44
   7  0.500  1.000  0.498-   8 1.42  64 1.42  66 1.43
   8  0.556  0.111  0.498-   7 1.42  21 1.42  19 1.43
   9  0.666  0.998  0.498-  10 1.42  66 1.42  68 1.44
  10  0.722  0.109  0.498-   9 1.42  23 1.43  21 1.43
  11  0.832  0.998  0.498-  12 1.42  70 1.42  68 1.44
  12  0.888  0.109  0.498-  11 1.42  23 1.43  13 1.43
  13  0.999  0.165  0.498-  14 1.42   2 1.42  12 1.43
  14  0.054  0.277  0.499-  13 1.42  25 1.42  27 1.43
  15  0.167  0.168  0.498-  16 1.42   4 1.42   2 1.43
  16  0.223  0.280  0.500-  15 1.42  27 1.43  29 1.44
  17  0.335  0.170  0.499-  18 1.42   4 1.44   6 1.44
  18  0.391  0.281  0.503-  17 1.42  31 1.44  29 1.44
  19  0.501  0.168  0.498-  20 1.42   6 1.42   8 1.43
  20  0.557  0.280  0.500-  19 1.42  33 1.43  31 1.44
  21  0.667  0.165  0.498-  22 1.42   8 1.42  10 1.43
  22  0.723  0.277  0.498-  21 1.42  35 1.42  33 1.43
  23  0.833  0.165  0.498-  24 1.42  10 1.43  12 1.43
  24  0.888  0.276  0.498-  23 1.42  25 1.42  35 1.43
  25  0.999  0.332  0.498-  14 1.42  26 1.42  24 1.42
  26  0.054  0.444  0.499-  39 1.42  37 1.42  25 1.42
  27  0.165  0.333  0.500-  28 1.42  16 1.43  14 1.43
  28  0.219  0.444  0.502-  41 1.41  27 1.42  39 1.42
  29  0.335  0.338  0.503-  30 1.41  18 1.44  16 1.44
  30  0.387  0.448  0.510-  41 1.41  29 1.41  71 2.00
  31  0.503  0.338  0.504-  32 1.41  18 1.44  20 1.44
  32  0.562  0.448  0.510-  43 1.41  31 1.41  71 2.00
  33  0.668  0.333  0.500-  34 1.42  20 1.43  22 1.43
  34  0.725  0.444  0.501-  43 1.41  33 1.42  45 1.42
  35  0.833  0.332  0.498-  22 1.42  36 1.42  24 1.43
  36  0.890  0.444  0.498-  45 1.42  37 1.42  35 1.42
  37  0.000  0.500  0.498-  36 1.42  26 1.42  38 1.42
  38  0.056  0.611  0.498-  47 1.42  49 1.42  37 1.42
  39  0.165  0.500  0.500-  26 1.42  28 1.42  40 1.42
  40  0.220  0.611  0.500-  49 1.42  51 1.42  39 1.42
  41  0.329  0.499  0.505-  30 1.41  28 1.41  42 1.44
  42  0.385  0.612  0.505-  53 1.41  51 1.41  41 1.44
  43  0.671  0.499  0.505-  32 1.41  34 1.41  44 1.44
  44  0.727  0.612  0.505-  55 1.41  57 1.41  43 1.44
  45  0.836  0.500  0.499-  36 1.42  34 1.42  46 1.42
  46  0.891  0.611  0.499-  47 1.42  57 1.42  45 1.42
  47  0.001  0.667  0.498-  46 1.42  38 1.42  48 1.42
  48  0.057  0.779  0.498-  59 1.42  47 1.42  61 1.43
  49  0.166  0.667  0.499-  40 1.42  38 1.42  50 1.42
  50  0.222  0.779  0.498-  63 1.42  49 1.42  61 1.42
  51  0.331  0.667  0.502-  42 1.41  52 1.42  40 1.42
  52  0.388  0.778  0.500-  51 1.42  65 1.43  63 1.43
  53  0.494  0.663  0.510-  42 1.41  54 1.41  71 2.00
  54  0.553  0.773  0.503-  53 1.41  67 1.44  65 1.44
  55  0.669  0.663  0.510-  44 1.41  56 1.41  71 2.00
  56  0.721  0.773  0.504-  55 1.41  67 1.44  69 1.44
  57  0.837  0.667  0.501-  44 1.41  58 1.42  46 1.42
  58  0.891  0.778  0.500-  57 1.42  69 1.42  59 1.43
  59  0.002  0.835  0.498-  60 1.42  48 1.42  58 1.43
  60  0.057  0.946  0.498-  59 1.42   1 1.42   3 1.43
  61  0.168  0.835  0.498-  62 1.42  50 1.42  48 1.43
  62  0.223  0.946  0.498-  61 1.42   3 1.43   5 1.43
  63  0.333  0.835  0.499-  64 1.42  50 1.42  52 1.43
  64  0.389  0.946  0.498-  63 1.42   7 1.42   5 1.43
  65  0.499  0.832  0.500-  66 1.42  52 1.43  54 1.44
  66  0.555  0.943  0.498-  65 1.42   9 1.42   7 1.43
  67  0.665  0.830  0.503-  68 1.42  56 1.44  54 1.44
  68  0.721  0.941  0.499-  67 1.42   9 1.44  11 1.44
  69  0.833  0.832  0.500-  70 1.42  58 1.42  56 1.44
  70  0.889  0.943  0.498-  69 1.42  11 1.42   1 1.43
  71  0.528  0.556  0.554-  55 2.00  32 2.00  53 2.00  30 2.00

IMPORTANT INFORMATION: All symmetrisations will be switched off!
NOSYMM: (Re-)initialisation of all symmetry stuff for point group C_1.

 KPOINTS: K-Points

Automatic generation of k-mesh.
Space group operators:
 irot       det(A)        alpha          n_x          n_y          n_z        tau_x        tau_y        tau_z
    1     1.000000     0.000000     1.000000     0.000000     0.000000     0.000000     0.000000     0.000000

 Subroutine IBZKPT returns following result:

 Found      4 irreducible k-points:

 Following reciprocal coordinates:
            Coordinates               Weight
  0.000000  0.000000  0.000000      1.000000
  0.500000  0.000000  0.000000      1.000000
 -0.000000  0.500000  0.000000      1.000000
  0.500000  0.500000  0.000000      1.000000

 Following cartesian coordinates:
            Coordinates               Weight
  0.000000  0.000000  0.000000      1.000000
  0.033606  0.019589  0.000000      1.000000
 -0.000000  0.039178  0.000000      1.000000
  0.033606  0.058767  0.000000      1.000000

 SYSTEM =  unknown system
 POSCAR =  POSCAR-clean

 Startparameter for this run:
   NWRITE =      2    write-flag & timer
   PREC   = accura    normal or accurate (medium, high low for compatibility)
   ISTART =      0    job   : 0-new  1-cont  2-samecut
   ICHARG =      2    charge: 1-file 2-atom 10-const
   ISPIN  =      2    spin polarized calculation?
   LNONCOLLINEAR =      F non collinear calculations
   LSORBIT =      F    spin-orbit coupling
   INIWAV =      1    electr: 0-lowe 1-rand  2-diag
   LASPH  =      F    aspherical Exc in radial PAW
   METAGGA=      F    non-selfconsistent MetaGGA calc.

 Electronic Relaxation 1
   ENCUT  =  550.0 eV  40.42 Ry    6.36 a.u.  28.45 28.25 28.68*2*pi/ulx,y,z
   ENINI  =  550.0     initial cutoff
   ENAUG  =  644.9 eV  augmentation charge cutoff
   NELM   =     50;   NELMIN=  2; NELMDL= -5     # of ELM steps
   EDIFF  = 0.1E-04   stopping-criterion for ELM
   LREAL  =      T    real-space projection
   NLSPLINE    = F    spline interpolate recip. space projectors
   LCOMPAT=      F    compatible to vasp.4.4
   GGA_COMPAT  = T    GGA compatible to vasp.4.4-vasp.4.6
   LMAXPAW     = -100 max onsite density
   LMAXMIX     =    2 max onsite mixed and CHGCAR
   VOSKOWN=      0    Vosko Wilk Nusair interpolation
   ROPT   =   -0.00025  -0.00025  -0.00025  -0.00025
 Ionic relaxation
   EDIFFG = -.5E-01   stopping-criterion for IOM
   NSW    =    400    number of steps for IOM
   NBLOCK =      1;   KBLOCK =    400    inner block; outer block
   IBRION =      2    ionic relax: 0-MD 1-quasi-New 2-CG
   NFREE  =      1    steps in history (QN), initial steepest desc. (CG)
   ISIF   =      3    stress and relaxation
   IWAVPR =     11    prediction:  0-non 1-charg 2-wave 3-comb
   ISYM   =      0    0-nonsym 1-usesym 2-fastsym
   LCORR  =      T    Harris-Foulkes like correction to forces

   POTIM  = 0.3000    time-step for ionic-motion
   TEIN   =    0.0    initial temperature
   TEBEG  =    0.0;   TEEND  =   0.0 temperature during run
   SMASS  =  -3.00    Nose mass-parameter (am)
   estimated Nose-frequenzy (Omega)   =  0.10E-29 period in steps =****** mass=  -0.506E-26a.u.
   SCALEE = 1.0000    scale energy and forces
   NPACO  =    256;   APACO  = 16.0  distance and # of slots for P.C.
   PSTRESS=    0.0 pullay stress

  Mass of Ions in am
   POMASS =  12.01 14.00 12.01 52.00
  Ionic Valenz
   ZVAL   =   4.00  5.00  4.00 12.00
  Atomic Wigner-Seitz radii
  virtual crystal weights
   VCA    =   1.00  1.00  1.00  1.00
   NELECT =     293.0000    total number of electrons
   NUPDOWN=      -1.0000    fix difference up-down

 DOS related values:
   EMIN   =  10.00;   EMAX   =-10.00  energy-range for DOS
   EFERMI =   0.00
   ISMEAR =     0;   SIGMA  =   0.10  broadening in eV -4-tet -1-fermi 0-gaus

 Electronic relaxation 2 (details)
   IALGO  =     68    algorithm
   LDIAG  =      T    sub-space diagonalisation (order eigenvalues)
   LSUBROT=      F    optimize rotation matrix (better conditioning)
   TURBO    =      0    0=normal 1=particle mesh
   IRESTART =      0    0=no restart 2=restart with 2 vectors
   NREBOOT  =      0    no. of reboots
   NMIN     =      0    reboot dimension
   EREF     =   0.00    reference energy to select bands
   IMIX   =      4    mixing-type and parameters
     AMIX     =   0.40;   BMIX     =  1.00
     AMIX_MAG =   1.60;   BMIX_MAG =  1.00
     AMIN     =   0.10
     WC   =   100.;   INIMIX=   1;  MIXPRE=   1;  MAXMIX= -45

 Intra band minimization:
[...]
  Total       0.12284     0.09718    -0.76734     0.05262    -0.00080    -0.03293
  in kB       0.06933     0.05485    -0.43307     0.02970    -0.00045    -0.01859

 VOLUME and BASIS-vectors are now :
  energy-cutoff  :      550.00
  volume of cell :     2838.87
      direct lattice vectors                 reciprocal lattice vectors
    14.840819483  0.001624541  0.000000000     0.067377432  0.039207918  0.000000000
    -7.420409742 12.751714014  0.000000000    -0.000008584  0.078415835  0.000000000
     0.000000000  0.000000000 15.000000000     0.000000000  0.000000000  0.066666667

  length of vectors
    14.840819572 14.753599256 15.000000000     0.077954982  0.078415836  0.066666667

 FORCES acting on ions
    electron-ion (+dipol)            ewald-force                    non-local-force                 convergence-correction
   0.167E+01 0.254E+00 0.785E+01   -.172E+01 -.308E+00 -.786E+01   0.331E-01 0.635E-01 0.166E-01   0.133E-03 -.361E-05 0.200E-04
   -.252E+01 0.782E+00 0.757E+01   0.268E+01 -.760E+00 -.759E+01   -.174E+00 -.252E-01 0.141E-01   -.504E-05 -.381E-04 0.364E-04
   0.628E+00 0.887E+00 0.749E+01   -.655E+00 -.798E+00 -.752E+01   0.458E-01 -.853E-01 0.306E-01   -.133E-03 -.164E-03 -.272E-04
   -.133E+01 0.174E+01 0.728E+01   0.128E+01 -.168E+01 -.729E+01   0.688E-01 -.665E-01 0.101E-01   -.966E-04 -.630E-04 -.191E-04
   0.201E+01 0.133E+01 0.712E+01   -.211E+01 -.139E+01 -.714E+01   0.956E-01 0.631E-01 0.226E-01   -.601E-04 -.116E-03 -.592E-04
   0.538E+01 0.367E+01 0.711E+01   -.585E+01 -.381E+01 -.711E+01   0.464E+00 0.140E+00 -.587E-03   -.128E-03 -.485E-04 -.636E-04
   0.117E+01 0.243E+01 0.759E+01   -.112E+01 -.312E+01 -.761E+01   -.467E-01 0.702E+00 0.175E-01   0.551E-04 -.227E-03 0.469E-04
   0.626E+01 0.105E+02 0.796E+01   -.739E+01 -.114E+02 -.799E+01   0.112E+01 0.898E+00 0.297E-01   0.467E-04 -.781E-04 0.333E-04
   -.437E+01 0.158E+01 0.713E+01   0.445E+01 -.232E+01 -.713E+01   -.694E-01 0.753E+00 -.214E-02   -.101E-03 -.147E-03 0.343E-04
   -.454E+01 0.953E+01 0.722E+01   0.557E+01 -.106E+02 -.724E+01   -.101E+01 0.108E+01 0.203E-01   -.243E-04 0.456E-04 0.357E-04
   -.320E+00 -.494E+00 0.693E+01   0.379E+00 0.242E+00 -.693E+01   -.620E-01 0.259E+00 -.110E-02   0.114E-03 0.708E-04 -.251E-04
   -.386E+01 0.201E+01 0.713E+01   0.429E+01 -.235E+01 -.716E+01   -.431E+00 0.343E+00 0.267E-01   0.186E-03 0.791E-04 -.126E-04
   -.532E+00 0.470E+01 0.744E+01   0.700E+00 -.475E+01 -.745E+01   -.169E+00 0.514E-01 0.104E-01   0.513E-04 -.212E-04 0.223E-04
   -.470E+00 0.204E+01 0.667E+01   0.735E+00 -.210E+01 -.670E+01   -.257E+00 0.639E-01 0.239E-01   0.572E-04 0.108E-03 0.680E-04
   0.262E+01 0.504E+01 0.804E+01   -.256E+01 -.489E+01 -.805E+01   -.637E-01 -.159E+00 0.126E-01   -.136E-03 0.305E-04 0.203E-04
   -.145E+01 0.722E+01 0.926E+01   0.189E+01 -.702E+01 -.935E+01   -.456E+00 -.201E+00 0.849E-01   -.521E-04 0.289E-03 0.538E-04
   0.233E+01 0.751E+01 0.715E+01   -.251E+01 -.716E+01 -.718E+01   0.178E+00 -.373E+00 0.235E-01   -.609E-05 -.100E-03 -.580E-04
   0.122E+01 0.814E+01 0.675E+01   -.141E+01 -.758E+01 -.643E+01   0.176E+00 -.604E+00 -.323E+00   -.438E-04 0.434E-03 0.727E-04
   0.495E+01 0.806E+01 0.882E+01   -.574E+01 -.833E+01 -.885E+01   0.796E+00 0.258E+00 0.238E-01   -.628E-04 0.202E-04 -.213E-04
   0.124E+02 0.597E+01 0.980E+01   -.142E+02 -.610E+01 -.989E+01   0.189E+01 0.116E+00 0.969E-01   -.764E-04 0.355E-03 0.362E-04
   -.156E+01 0.305E+02 0.761E+01   0.152E+01 -.367E+02 -.764E+01   0.460E-01 0.625E+01 0.314E-01   0.435E-04 0.771E-04 0.570E-04
   -.212E+01 0.402E+01 0.899E+01   0.201E+01 -.393E+01 -.912E+01   0.115E+00 -.813E-01 0.126E+00   0.111E-03 0.220E-03 0.107E-03
   -.682E+01 0.628E+01 0.626E+01   0.755E+01 -.676E+01 -.625E+01   -.725E+00 0.471E+00 -.158E-01   0.131E-03 0.116E-03 -.534E-05
   -.108E+02 0.526E+00 0.645E+01   0.122E+02 -.955E+00 -.647E+01   -.136E+01 0.429E+00 0.203E-01   0.113E-04 0.148E-03 -.610E-05
   -.180E+01 0.354E+01 0.593E+01   0.242E+01 -.325E+01 -.590E+01   -.619E+00 -.284E+00 -.275E-01   0.101E-03 0.119E-03 0.235E-04
   -.559E+00 0.175E+01 0.636E+01   0.861E+00 -.160E+01 -.638E+01   -.298E+00 -.149E+00 0.267E-01   0.275E-03 0.280E-04 0.595E-04
   0.459E+01 0.107E+02 0.599E+01   -.429E+01 -.107E+02 -.598E+01   -.317E+00 0.173E-01 -.137E-01   0.127E-03 0.257E-03 0.138E-03
   0.113E+02 0.618E+01 0.302E+01   -.111E+02 -.611E+01 -.308E+01   -.256E+00 -.892E-01 0.687E-01   0.268E-03 0.269E-03 0.198E-03
   0.158E+01 0.189E+02 0.135E+02   -.141E+01 -.181E+02 -.137E+02   -.174E+00 -.844E+00 0.251E+00   -.921E-04 0.641E-03 0.118E-03
   -.523E+01 0.379E+02 0.346E+02   0.111E+02 -.346E+02 -.341E+02   -.590E+01 -.327E+01 -.526E+00   0.814E-03 0.162E-02 0.761E-03
   0.260E+01 0.181E+02 0.109E+02   -.340E+01 -.168E+02 -.111E+02   0.820E+00 -.128E+01 0.171E+00   -.647E-04 0.724E-03 0.196E-03
   0.983E+01 0.328E+02 0.237E+02   -.161E+02 -.291E+02 -.228E+02   0.630E+01 -.368E+01 -.839E+00   -.842E-03 0.181E-02 0.939E-03
   0.185E+02 -.350E+01 0.632E+01   -.240E+02 0.667E+01 -.612E+01   0.551E+01 -.317E+01 -.195E+00   -.583E-04 0.329E-03 0.690E-04
   -.504E+01 -.290E+01 0.587E+01   0.447E+01 0.442E+01 -.597E+01   0.594E+00 -.151E+01 0.107E+00   -.394E-03 0.396E-03 0.690E-04
   -.252E+02 -.103E+02 0.666E+01   0.306E+02 0.134E+02 -.667E+01   -.535E+01 -.309E+01 0.488E-02   0.226E-04 0.393E-04 0.217E-04
   -.104E+02 -.527E+01 0.778E+01   0.107E+02 0.665E+01 -.783E+01   -.260E+00 -.137E+01 0.432E-01   -.142E-03 -.486E-04 0.239E-04
   -.734E+00 -.283E+01 0.751E+01   0.129E+01 0.318E+01 -.753E+01   -.552E+00 -.349E+00 0.143E-01   0.146E-03 0.366E-04 0.611E-05
   -.149E+01 -.192E+01 0.753E+01   0.157E+01 0.214E+01 -.755E+01   -.878E-01 -.206E+00 0.163E-01   0.632E-04 0.780E-04 -.473E-05
   0.502E+01 0.640E+00 0.315E+01   -.482E+01 -.561E+00 -.309E+01   -.208E+00 -.815E-01 -.567E-01   0.224E-03 0.651E-04 0.151E-03
   0.491E+01 -.164E+01 0.318E+01   -.482E+01 0.169E+01 -.312E+01   -.829E-01 -.496E-01 -.513E-01   0.277E-03 -.101E-03 0.150E-03
   0.280E+02 0.109E+02 0.133E+02   -.274E+02 -.113E+02 -.141E+02   -.613E+00 0.451E+00 0.810E+00   0.681E-03 0.409E-03 0.601E-03
   0.278E+02 -.105E+02 0.129E+02   -.272E+02 0.109E+02 -.137E+02   -.602E+00 -.470E+00 0.822E+00   0.680E-03 -.377E-03 0.621E-03
   -.247E+02 0.631E+01 0.120E+02   0.233E+02 -.640E+01 -.125E+02   0.139E+01 0.855E-01 0.546E+00   -.823E-03 0.571E-03 0.584E-03
   -.247E+02 -.112E+02 0.127E+02   0.238E+02 0.118E+02 -.133E+02   0.914E+00 -.589E+00 0.647E+00   -.732E-03 -.478E-03 0.527E-03
   -.538E+01 -.768E+01 0.605E+01   0.531E+01 0.853E+01 -.602E+01   0.648E-01 -.841E+00 -.243E-01   -.295E-03 0.252E-03 0.208E-04
   -.549E+01 -.517E+01 0.572E+01   0.540E+01 0.565E+01 -.569E+01   0.881E-01 -.490E+00 -.306E-01   -.322E-03 -.253E-04 0.196E-04
   -.356E+01 -.579E+01 0.775E+01   0.359E+01 0.597E+01 -.779E+01   -.296E-01 -.167E+00 0.389E-01   -.192E-03 0.773E-04 -.710E-06
   -.197E+01 -.412E+01 0.682E+01   0.193E+01 0.422E+01 -.680E+01   0.368E-01 -.122E+00 -.192E-01   -.314E-04 0.166E-04 -.217E-04
   0.371E+01 -.480E+01 0.658E+01   -.359E+01 0.488E+01 -.661E+01   -.123E+00 -.816E-01 0.357E-01   0.152E-03 0.737E-04 0.401E-04
   0.135E+01 -.247E+01 0.596E+01   -.131E+01 0.250E+01 -.594E+01   -.239E-01 -.354E-01 -.222E-01   0.341E-04 -.462E-04 -.109E-04
   0.127E+02 -.631E+01 0.299E+01   -.125E+02 0.623E+01 -.306E+01   -.223E+00 0.907E-01 0.789E-01   0.293E-03 -.226E-03 0.206E-03
   0.542E+01 -.912E+01 0.596E+01   -.525E+01 0.912E+01 -.595E+01   -.177E+00 0.114E-01 -.150E-01   0.430E-04 -.284E-03 0.147E-03
   -.543E+01 -.380E+02 0.327E+02   0.113E+02 0.348E+02 -.321E+02   -.589E+01 0.323E+01 -.655E+00   0.811E-03 -.157E-02 0.789E-03
   0.350E+00 -.178E+02 0.136E+02   -.828E-01 0.169E+02 -.139E+02   -.266E+00 0.859E+00 0.257E+00   -.683E-04 -.691E-03 0.159E-03
   0.544E+01 -.367E+02 0.280E+02   -.114E+02 0.334E+02 -.272E+02   0.595E+01 0.336E+01 -.724E+00   -.808E-03 -.174E-02 0.848E-03
   -.101E+01 -.165E+02 0.118E+02   0.801E+00 0.156E+02 -.120E+02   0.218E+00 0.927E+00 0.210E+00   0.365E-04 -.672E-03 0.122E-03
   -.112E+02 -.847E+01 0.561E+01   0.109E+02 0.851E+01 -.571E+01   0.349E+00 -.475E-01 0.994E-01   -.309E-03 -.300E-03 0.349E-04
   -.485E+01 -.108E+02 0.688E+01   0.463E+01 0.109E+02 -.686E+01   0.230E+00 -.141E+00 -.290E-01   -.282E-04 -.239E-03 0.365E-04
   -.150E+01 -.388E+01 0.775E+01   0.145E+01 0.392E+01 -.778E+01   0.489E-01 -.640E-01 0.307E-01   -.120E-04 -.219E-04 0.209E-04
   -.180E+01 -.333E+01 0.791E+01   0.183E+01 0.337E+01 -.792E+01   -.234E-01 -.439E-01 0.134E-01   -.312E-04 -.503E-04 0.849E-05
   0.104E+01 -.221E+01 0.657E+01   -.102E+01 0.222E+01 -.660E+01   -.227E-01 -.139E-01 0.229E-01   -.153E-04 -.809E-04 -.600E-04
   0.104E+01 -.165E+01 0.621E+01   -.111E+01 0.164E+01 -.619E+01   0.802E-01 0.140E-01 -.228E-01   -.799E-04 -.164E-03 -.681E-04
   0.263E+01 -.265E+01 0.681E+01   -.262E+01 0.257E+01 -.683E+01   -.160E-01 0.880E-01 0.244E-01   0.799E-05 -.171E-03 0.532E-04
   0.163E+01 -.167E+01 0.742E+01   -.181E+01 0.152E+01 -.744E+01   0.172E+00 0.150E+00 0.144E-01   0.179E-04 -.220E-03 0.383E-05
   -.107E+01 -.709E+01 0.945E+01   0.149E+01 0.670E+01 -.954E+01   -.429E+00 0.406E+00 0.934E-01   -.319E-04 -.265E-03 0.841E-04
   0.227E+01 -.303E-01 0.793E+01   -.220E+01 -.411E+00 -.794E+01   -.679E-01 0.442E+00 0.739E-02   -.985E-04 -.169E-03 0.546E-04
   -.124E+01 -.888E+01 0.705E+01   0.131E+01 0.821E+01 -.673E+01   -.768E-01 0.697E+00 -.331E+00   -.111E-04 -.494E-03 0.845E-04
   0.102E-01 -.445E+01 0.695E+01   0.143E+00 0.394E+01 -.698E+01   -.155E+00 0.522E+00 0.202E-01   -.137E-04 0.626E-05 -.153E-04
   0.960E+00 -.777E+01 0.933E+01   -.142E+01 0.751E+01 -.941E+01   0.486E+00 0.261E+00 0.820E-01   0.662E-04 -.323E-03 0.177E-05
   -.382E+01 -.374E+01 0.812E+01   0.381E+01 0.352E+01 -.815E+01   0.711E-02 0.228E+00 0.218E-01   0.183E-03 -.103E-04 -.179E-04
   -.386E+01 -.363E+00 -.643E+03   0.476E+01 0.456E+00 0.624E+03   -.965E+00 -.882E-01 0.194E+02   0.389E-03 -.731E-04 -.701E-03
   0.347E+00 0.455E+00 -.207E+02   0.959E-13 0.366E-14 0.114E-12   -.352E+00 -.446E+00 0.207E+02   0.234E-03 -.374E-04 0.744E-02

 POSITION                                       TOTAL-FORCE (eV/Angst)
     -7.42008     12.74932      7.46497        -0.014477      0.009775      0.001009
      0.00168      1.42125      7.46627        -0.010117     -0.004146      0.001128
      2.47786      0.02393      7.46257         0.019180      0.004569      0.001513
      2.47769      1.44544      7.47435         0.017146     -0.000640     -0.002926
      4.94970      0.02270      7.46414        -0.002692      0.000376     -0.001024
      4.95086      1.44628      7.47469        -0.007201     -0.001181     -0.003738
      7.42947      0.00587      7.46638        -0.006948      0.011960      0.000574
      7.42529      1.43414      7.46504        -0.007691     -0.000597      0.000458
      2.47076     12.73490      7.47517         0.013469      0.013119     -0.000578
      9.89299      1.40871      7.46400         0.011172      0.004309      0.004323
      4.94567     12.72682      7.47554        -0.003273      0.005242     -0.002852
     12.36484      1.39859      7.46456        -0.004202      0.002074      0.000835
     13.59984      2.11652      7.46590         0.000588      0.007334      0.004451
     -1.24887      3.53203      7.47710         0.008961      0.000648      0.001689
      1.23922      2.14534      7.47738         0.000656     -0.009343     -0.002233
      1.23957      3.56898      7.50293        -0.016492     -0.001431     -0.000959
      3.71475      2.17048      7.49055        -0.004372     -0.016478     -0.009514
      3.71940      3.58793      7.53447        -0.009555     -0.032018     -0.001189
      6.18456      2.14405      7.47504        -0.000032     -0.011179     -0.003119
      6.19913      3.56706      7.50058         0.013304     -0.014761      0.008448
      8.66400      2.12732      7.46460         0.005169      0.007624      0.006492
      8.66819      3.53231      7.47324        -0.003906      0.008054      0.002015
     11.13454      2.10651      7.46356         0.008098     -0.004979     -0.004145
     11.12011      3.52462      7.46526         0.004427      0.000074     -0.005452
     12.35519      4.24157      7.47300         0.008313     -0.000822      0.001084
     -2.48421      5.66026      7.47996         0.002198     -0.004206      0.001901
     -0.01221      4.24774      7.50379        -0.019464      0.000703     -0.001776
     -0.03171      5.66282      7.53388        -0.022611     -0.025595      0.007639
      2.47959      4.30960      7.54604         0.008549     -0.015157     -0.010788
      2.44418      5.72416      7.62575         0.000362     -0.010827     -0.023307
      4.95979      4.31418      7.55320        -0.000963     -0.013564      0.006672
      4.98637      5.72791      7.64555         0.009084      0.005644     -0.000972
      7.44838      4.24126      7.49832         0.010840     -0.000180     -0.002376
      7.46567      5.65360      7.52262         0.017575     -0.003796      0.005919
      9.88919      4.23340      7.46921        -0.004409      0.005296      0.001046
      9.89659      5.65248      7.47342        -0.000925      0.001612      0.001648
     -3.71055      6.36578      7.47099        -0.000015     -0.003024     -0.001007
     -3.71028      7.78969      7.47077        -0.006465      0.011161     -0.001196
     -1.26035      6.37419      7.50860        -0.008037     -0.003744      0.007657
     -1.26034      7.79472      7.50849        -0.007287      0.002853      0.006881
      1.19106      6.37030      7.58090         0.008351     -0.010060      0.004809
      1.19082      7.80209      7.58222        -0.004672     -0.000959      0.008934
      6.23961      6.35971      7.58102         0.015461     -0.010547      0.012299
      6.23558      7.79478      7.57913         0.021396      0.022876      0.008932
      8.68530      6.37712      7.49600         0.003223      0.005341      0.002613
      8.68349      7.79350      7.49668         0.002524     -0.009747      0.001553
     -4.93413      8.50634      7.47312         0.005094      0.008984      0.002138
     -4.94015      9.92884      7.46797        -0.006207     -0.017414      0.001320
     -2.48212      8.50585      7.47938        -0.003030     -0.003669      0.001402
     -2.47658      9.93132      7.47250         0.012137     -0.004597     -0.001033
     -0.03061      8.50830      7.53430        -0.019034      0.012741      0.011013
     -0.01045      9.92425      7.50394        -0.008958      0.013842     -0.001369
      2.44300      8.45047      7.63049        -0.002123     -0.001571     -0.024010
      2.47431      9.86478      7.54614         0.013793      0.026954     -0.006082
      4.98056      8.43540      7.63777         0.018880     -0.006069     -0.002068
      4.94692      9.85703      7.55014        -0.006796      0.012241      0.001950
      7.45374      8.50568      7.52359        -0.000462      0.002148      0.001271
      7.43387      9.92176      7.49795         0.003568     -0.001634     -0.004624
     -6.17410     10.63656      7.47138         0.002588     -0.017386      0.002725
     -6.17719     12.05718      7.46276         0.005372     -0.012506      0.006429
     -3.70668     10.64285      7.46430        -0.000229     -0.003762     -0.007915
     -3.70642     12.06442      7.46289         0.007748      0.005803     -0.007887
     -1.24164     10.64067      7.47676        -0.003836      0.008080      0.001043
     -1.23685     12.06173      7.46572        -0.011629     -0.003061      0.002782
      1.23878     10.60437      7.50285        -0.010816      0.012637      0.002206
      1.23826     12.03089      7.47782         0.002169      0.000621     -0.001284
      3.71209     10.58697      7.53350        -0.011429      0.016771     -0.003661
      3.70963     12.00852      7.49102        -0.000924      0.010875     -0.008541
      6.18218     10.59941      7.50170         0.019832      0.001939      0.002947
      6.18227     12.02567      7.47669        -0.005459      0.011181     -0.002897
      3.68920      7.08769      8.32740        -0.044491      0.005191      0.000777
    total drift:                               -0.004728      0.009328     -0.034619

  FREE ENERGIE OF THE ION-ELECTRON SYSTEM (eV)
  free  energy   TOTEN  =      -652.92957009 eV

  energy  without entropy=     -652.87959389  energy(sigma->0) =     -652.90458199

 d Force = 0.4825452E-04[ 0.482E-04, 0.484E-04]  d Energy =-0.6891895E-04 0.117E-03
 d Force =-0.5095170E-01[-0.509E-01,-0.510E-01]  d Ewald  =-0.4974169E+00 0.446E+00

 reached required accuracy - stopping structural energy minimisation