 vasp.5.4.4.18Apr17-6-g9f103f2a35 (build Jan 14 2022 15:04:31) complex

 executed on             LinuxIFC date 2023.04.05  11:31:12

 INCAR:
 POTCAR:    PAW_PBE C 08Apr2002
 POTCAR:    PAW_PBE N 08Apr2002
 POTCAR:    PAW_PBE Ge_d 03Jul2007
 POTCAR:    PAW_PBE C 08Apr2002
   VRHFIN =C: s2p2

   TITEL  = PAW_PBE C 08Apr2002
   POMASS =   12.011; ZVAL   =    4.000    mass and valenz
   ENMAX  =  400.000; ENMIN  =  300.000 eV

   TITEL  = PAW_PBE N 08Apr2002
   POMASS =   14.001; ZVAL   =    5.000    mass and valenz
   ENMAX  =  400.000; ENMIN  =  300.000 eV

   TITEL  = PAW_PBE Ge_d 03Jul2007
   POMASS =   72.610; ZVAL   =   14.000    mass and valenz
   ENMAX  =  310.294; ENMIN  =  232.720 eV

  PAW_PBE C 08Apr2002                   :
  PAW_PBE N 08Apr2002                   :
  PAW_PBE Ge_d 03Jul2007                :

 POSCAR: POSCAR-c3n4
  positions in cartesian coordinates
 exchange correlation table for  LEXCH =        8
   RHO(1)=    0.500       N(1)  =     2000
   RHO(2)=  100.500       N(2)  =     4000

 VTST: version 3.2, (02/03/18)

 CHAIN: initializing optimizer

 OPT: Using VASP Dynamics algorithm
 CHAIN: Read ICHAIN            0

 POSCAR: POSCAR-c3n4
  positions in cartesian coordinates

 ion  position               nearest neighbor table
   1  0.106  0.214  0.426-  26 1.18  46 1.18  25 1.24   6 1.99  16 1.99
   2  0.288  0.399  0.433-  29 1.16  35 1.22  25 1.26   5 2.01  10 2.05
   3  0.104  0.392  0.427-  44 1.16  39 1.21  25 1.26  17 2.00  12 2.04
   4  0.447  0.064  0.506-  30 1.16  27 1.18  48 1.24  13 1.99   8 1.99
   5  0.453  0.401  0.413-  28 1.17  29 1.18  56 1.25  15 1.99   2 2.01
   6  0.112  0.053  0.449-  26 1.16  31 1.17  32 1.23   9 1.98   1 1.99
   7  0.096  0.712  0.484-  54 1.17  34 1.19  33 1.24  12 1.97  22 2.00
   8  0.284  0.890  0.501-  27 1.18  37 1.19  33 1.25   4 1.99  11 2.00
   9  0.109  0.895  0.498-  31 1.17  52 1.18  33 1.26   6 1.98  23 1.99
  10  0.448  0.548  0.502-  38 1.17  56 1.19  35 1.20  19 1.98   2 2.05  57 2.40
  11  0.445  0.885  0.489-  37 1.18  36 1.18  48 1.22  21 2.00   8 2.00
  12  0.087  0.542  0.481-  34 1.16  40 1.18  39 1.19   7 1.97   3 2.04  57 2.41
  13  0.616  0.223  0.473-  42 1.19  30 1.19  41 1.24   4 1.99  18 1.99
  14  0.780  0.390  0.400-  45 1.19  51 1.20  41 1.24  17 1.98  22 1.98
  15  0.610  0.394  0.435-  28 1.18  55 1.18  41 1.28  24 1.99   5 1.99
  16  0.940  0.052  0.461-  46 1.16  43 1.17  32 1.23  20 1.98   1 1.99
  17  0.941  0.387  0.394-  45 1.16  44 1.18  40 1.25  14 1.98   3 2.00
  18  0.623  0.066  0.512-  42 1.17  47 1.18  48 1.24  13 1.99  21 1.99
  19  0.613  0.711  0.531-  50 1.17  38 1.20  49 1.24  10 1.98  24 2.00
  20  0.790  0.897  0.523-  43 1.17  53 1.18  49 1.27  16 1.98  23 1.98
  21  0.609  0.892  0.521-  47 1.18  36 1.19  49 1.26  18 1.99  11 2.00
  22  0.938  0.563  0.421-  51 1.15  54 1.19  40 1.25  14 1.98   7 2.00
  23  0.954  0.902  0.535-  52 1.18  53 1.18  32 1.23  20 1.98   9 1.99
  24  0.621  0.555  0.490-  55 1.16  50 1.17  56 1.24  15 1.99  19 2.00
  25  0.167  0.335  0.425-   1 1.24   3 1.26   2 1.26
  26  0.165  0.161  0.421-   6 1.16   1 1.18
  27  0.336  0.002  0.522-   8 1.18   4 1.18
  28  0.512  0.352  0.392-   5 1.17  15 1.18
  29  0.345  0.361  0.390-   2 1.16   5 1.18
  30  0.506  0.177  0.493-   4 1.16  13 1.19
  31  0.159  0.988  0.447-   9 1.17   6 1.17
  32  0.002  0.002  0.483-  16 1.23  23 1.23   6 1.23
  33  0.165  0.831  0.500-   7 1.24   8 1.25   9 1.26
  34  0.134  0.645  0.518-  12 1.16   7 1.19  57 2.31
  35  0.334  0.491  0.492-  10 1.20   2 1.22  57 1.82
  36  0.503  0.831  0.490-  11 1.18  21 1.19
  37  0.333  0.829  0.479-  11 1.18   8 1.19
  38  0.499  0.648  0.545-  10 1.17  19 1.20  57 2.32
  39  0.142  0.484  0.485-  12 1.19   3 1.21  57 1.83
  40  0.988  0.496  0.436-  12 1.18  22 1.25  17 1.25
  41  0.667  0.330  0.429-  13 1.24  14 1.24  15 1.28
  42  0.680  0.178  0.495-  18 1.17  13 1.19
  43  0.827  0.986  0.468-  20 1.17  16 1.17
  44  0.011  0.348  0.379-   3 1.16  17 1.18
  45  0.830  0.330  0.380-  17 1.16  14 1.19
  46  0.993  0.161  0.435-  16 1.16   1 1.18
  47  0.669  0.005  0.539-  21 1.18  18 1.18
  48  0.505  0.004  0.498-  11 1.22  18 1.24   4 1.24
  49  0.668  0.832  0.534-  19 1.24  21 1.26  20 1.27
  50  0.675  0.666  0.512-  19 1.17  24 1.17
  51  0.832  0.507  0.396-  22 1.15  14 1.20
  52  0.016  0.853  0.549-  23 1.18   9 1.18
  53  0.849  0.860  0.566-  20 1.18  23 1.18
  54  0.004  0.677  0.435-   7 1.17  22 1.19
  55  0.668  0.491  0.484-  24 1.16  15 1.18
  56  0.506  0.502  0.467-  10 1.19  24 1.24   5 1.25
  57  0.287  0.593  0.558-  35 1.82  39 1.83  34 2.31  38 2.32  10 2.40  12 2.41

IMPORTANT INFORMATION: All symmetrisations will be switched off!
NOSYMM: (Re-)initialisation of all symmetry stuff for point group C_1.

 KPOINTS: K-Points

Automatic generation of k-mesh.
Space group operators:
 irot       det(A)        alpha          n_x          n_y          n_z        tau_x        tau_y        tau_z
    1     1.000000     0.000000     1.000000     0.000000     0.000000     0.000000     0.000000     0.000000

 Subroutine IBZKPT returns following result:

 Found      5 irreducible k-points:

 Following reciprocal coordinates:
            Coordinates               Weight
  0.000000  0.000000  0.000000      1.000000
  0.333333  0.000000  0.000000      2.000000
 -0.000000  0.333333  0.000000      2.000000
  0.333333  0.333333  0.000000      2.000000
 -0.333333  0.333333  0.000000      2.000000

 Following cartesian coordinates:
            Coordinates               Weight
  0.000000  0.000000  0.000000      1.000000
  0.024277  0.014368  0.000000      2.000000
  0.000396  0.028736  0.000000      2.000000
  0.024673  0.043104  0.000000      2.000000
 -0.023881  0.014368  0.000000      2.000000

 TETIRR: Found     24 inequivalent tetrahedra from       54

 SYSTEM =  unknown system
 POSCAR =  POSCAR-c3n4

 Startparameter for this run:
   NWRITE =      2    write-flag & timer
   PREC   = normal    normal or accurate (medium, high low for compatibility)
   ISTART =      0    job   : 0-new  1-cont  2-samecut
   ICHARG =      2    charge: 1-file 2-atom 10-const
   ISPIN  =      2    spin polarized calculation?
   LNONCOLLINEAR =      F non collinear calculations
   LSORBIT =      F    spin-orbit coupling
   INIWAV =      1    electr: 0-lowe 1-rand  2-diag
   LASPH  =      F    aspherical Exc in radial PAW
   METAGGA=      F    non-selfconsistent MetaGGA calc.

 Electronic Relaxation 1
   ENCUT  =  440.0 eV  32.34 Ry    5.69 a.u.  20.84 20.45 22.58*2*pi/ulx,y,z
   ENINI  =  440.0     initial cutoff
   ENAUG  =  644.9 eV  augmentation charge cutoff
   NELM   =    100;   NELMIN=  2; NELMDL= -5     # of ELM steps
   EDIFF  = 0.1E-03   stopping-criterion for ELM
   LREAL  =      F    real-space projection
   NLSPLINE    = F    spline interpolate recip. space projectors
   LCOMPAT=      F    compatible to vasp.4.4
   GGA_COMPAT  = T    GGA compatible to vasp.4.4-vasp.4.6
   LMAXPAW     = -100 max onsite density
   LMAXMIX     =    2 max onsite mixed and CHGCAR
   VOSKOWN=      0    Vosko Wilk Nusair interpolation
   ROPT   =    0.00000   0.00000   0.00000
 Ionic relaxation
   EDIFFG = -.1E-01   stopping-criterion for IOM
   NSW    =      0    number of steps for IOM
   NBLOCK =      1;   KBLOCK =      1    inner block; outer block
   IBRION =     -1    ionic relax: 0-MD 1-quasi-New 2-CG
   NFREE  =      0    steps in history (QN), initial steepest desc. (CG)
   ISIF   =      2    stress and relaxation
   IWAVPR =     10    prediction:  0-non 1-charg 2-wave 3-comb
   ISYM   =      0    0-nonsym 1-usesym 2-fastsym
   LCORR  =      T    Harris-Foulkes like correction to forces

   POTIM  = 0.5000    time-step for ionic-motion
   TEIN   =    0.0    initial temperature
   TEBEG  =    0.0;   TEEND  =   0.0 temperature during run
   SMASS  =  -3.00    Nose mass-parameter (am)
   estimated Nose-frequenzy (Omega)   =  0.10E-29 period in steps =****** mass=  -0.339E-26a.u.
   SCALEE = 1.0000    scale energy and forces
   NPACO  =    256;   APACO  = 16.0  distance and # of slots for P.C.
   PSTRESS=    0.0 pullay stress

  Mass of Ions in am
   POMASS =  12.01 14.00 72.61
  Ionic Valenz
   ZVAL   =   4.00  5.00 14.00
  Atomic Wigner-Seitz radii
  virtual crystal weights
   VCA    =   1.00  1.00  1.00
   NELECT =     270.0000    total number of electrons
   NUPDOWN=      -1.0000    fix difference up-down

 DOS related values:
   EMIN   = -14.00;   EMAX   =  6.00  energy-range for DOS
   EFERMI =   0.00
   ISMEAR =    -5;   SIGMA  =   0.20  broadening in eV -4-tet -1-fermi 0-gaus

 Electronic relaxation 2 (details)
   IALGO  =     38    algorithm
   LDIAG  =      T    sub-space diagonalisation (order eigenvalues)
   LSUBROT=      F    optimize rotation matrix (better conditioning)
   TURBO    =      0    0=normal 1=particle mesh
   IRESTART =      0    0=no restart 2=restart with 2 vectors
   NREBOOT  =      0    no. of reboots
   NMIN     =      0    reboot dimension
   EREF     =   0.00    reference energy to select bands
   IMIX   =      4    mixing-type and parameters
     AMIX     =   0.25;   BMIX     =  0.00
     AMIX_MAG =   1.00;   BMIX_MAG =  0.00
     AMIN     =   0.10
     WC   =   100.;   INIMIX=   1;  MIXPRE=   1;  MAXMIX= -45

 Intra band minimization:
   WEIMIN = 0.0000     energy-eigenvalue tresh-hold
   EBREAK =  0.15E-06  absolut break condition
   DEPER  =   0.30     relativ break condition

   TIME   =   0.40     timestep for ELM

  volume/ion in A,a.u.               =      28.80       194.34
  Fermi-wavevector in a.u.,A,eV,Ry     =   0.896984  1.695054 10.946981  0.804580
  Thomas-Fermi vector in A             =   2.019511

 Write flags
   LWAVE        =      F    write WAVECAR
   LDOWNSAMPLE  =      F    k-point downsampling of WAVECAR
   LCHARG       =      F    write CHGCAR
   LVTOT        =      F    write LOCPOT, total local potential
   LVHAR        =      F    write LOCPOT, Hartree potential only
   LELF         =      F    write electronic localiz. function (ELF)
   LORBIT       =     11    0 simple, 1 ext, 2 COOP (PROOUT), +10 PAW based schemes

 Dipole corrections
   LMONO  =      F    monopole corrections only (constant potential shift)
   LDIPOL =      F    correct potential (dipole corrections)
   IDIPOL =      0    1-x, 2-y, 3-z, 4-all directions
   EPSILON=  1.0000000 bulk dielectric constant

 Exchange correlation treatment:
   GGA     =    --    GGA type
   VOSKOWN=      0    Vosko Wilk Nusair interpolation
   LHFCALC =     F    Hartree Fock is set to
   LHFONE  =     F    Hartree Fock one center treatment
   AEXX    =    0.0000 exact exchange contribution

 Linear response parameters
   LEPSILON=     F    determine dielectric tensor
   LRPA    =     F    only Hartree local field effects (RPA)
   LNABLA  =     F    use nabla operator in PAW spheres
   LVEL    =     F    velocity operator in full k-point grid
   LINTERFAST=   F  fast interpolation
   KINTER  =     0    interpolate to denser k-point grid
   CSHIFT  =0.1000    complex shift for real part using Kramers Kronig
   OMEGAMAX=  -1.0    maximum frequency
   DEG_THRESHOLD= 0.2000000E-02 threshold for treating states as degnerate
[...]
  Kinetic  5090.05466  5134.98930  5431.54714     8.98074   -29.10493   -12.45889
  Fock        0.00000     0.00000     0.00000     0.00000     0.00000     0.00000
  vdW        -4.06603    -3.99819    -0.45112    -0.00579    -0.02374    -0.00105
  Total     609.11960   546.00688   121.10491   -10.97914    30.35437    16.72112
  in kB     594.53725   532.93546   118.20565   -10.71629    29.62769    16.32082

 VOLUME and BASIS-vectors are now :
  energy-cutoff  :      440.00
  volume of cell :     1641.47
      direct lattice vectors                 reciprocal lattice vectors
    12.182213326 -0.167851617  0.000000000     0.082761783  0.048981948  0.000000000
    -6.091106663 10.291768075  0.000000000     0.001349787  0.097963896  0.000000000
     0.000000000  0.000000000 13.200000000     0.000000000  0.000000000  0.075757576

  length of vectors
    12.183369636 11.959183521 13.200000000     0.096170391  0.097973195  0.075757576

 FORCES acting on ions
    electron-ion (+dipol)            ewald-force                    non-local-force                 convergence-correction
   -.673E+01 0.139E+02 0.142E+03   0.693E+01 -.133E+02 -.142E+03   -.249E+00 0.387E+01 -.159E+01   0.233E-01 0.119E-01 0.453E-02
   -.301E+01 0.351E+02 0.155E+03   0.135E+01 -.355E+02 -.155E+03   -.346E+01 0.935E+00 0.282E+00   0.294E-01 0.584E-02 0.361E-02
   -.135E+02 0.380E+02 0.154E+03   0.153E+02 -.383E+02 -.154E+03   0.312E+01 0.867E+00 0.655E+00   0.404E-01 -.174E-02 0.145E-02
   0.837E+02 -.686E+02 -.105E+03   -.873E+02 0.699E+02 0.106E+03   0.362E+01 -.193E+01 -.378E+00   -.898E-03 -.852E-02 0.133E-02
   -.174E+02 0.654E+02 0.242E+03   0.174E+02 -.681E+02 -.245E+03   -.376E+00 0.395E+01 0.234E+01   -.110E-01 0.219E-01 0.185E-01
   -.781E+02 -.225E+02 0.116E+03   0.815E+02 0.238E+02 -.118E+03   -.357E+01 -.182E+01 0.145E+01   -.533E-03 0.102E-01 0.173E-02
   0.496E+02 -.312E+02 -.396E+02   -.494E+02 0.322E+02 0.410E+02   0.745E+00 0.258E+01 0.875E+00   0.276E-02 0.140E-01 0.192E-02
   0.285E+02 -.212E+02 -.593E+02   -.290E+02 0.202E+02 0.593E+02   -.296E+01 -.205E+01 0.533E+00   0.350E-02 -.470E-02 0.691E-02
   -.704E+01 -.336E+01 -.720E+02   0.738E+01 0.196E+01 0.725E+02   0.335E+01 -.166E+01 0.348E+00   0.213E-02 0.182E-02 0.106E-02
   -.302E+02 0.210E+02 -.872E+02   0.280E+02 -.198E+02 0.890E+02   0.120E+01 -.201E+01 -.136E+01   0.150E-01 -.115E-01 -.934E-02
   -.412E+01 0.261E+02 0.569E+02   0.416E+01 -.305E+02 -.572E+02   0.934E-01 0.388E+01 -.643E+00   0.843E-02 -.155E-01 0.123E-01
   0.397E+02 0.189E+02 -.779E+02   -.375E+02 -.177E+02 0.803E+02   -.132E+01 -.247E+01 -.907E+00   0.187E-01 0.168E-01 0.852E-02
   -.452E+01 -.177E+02 -.191E+02   0.496E+01 0.175E+02 0.180E+02   -.199E+00 0.373E+01 -.758E+00   -.223E-01 0.126E-02 0.997E-03
   0.440E+02 0.338E+02 0.234E+03   -.447E+02 -.342E+02 -.234E+03   -.324E+01 -.137E+01 -.104E+01   -.282E-01 0.709E-02 0.656E-02
   -.130E+02 0.251E+02 0.105E+03   0.138E+02 -.267E+02 -.105E+03   0.341E+01 -.132E+01 -.504E+00   -.427E-01 0.184E-01 0.481E-02
   0.809E+02 -.212E+02 0.798E+02   -.845E+02 0.224E+02 -.810E+02   0.361E+01 -.192E+01 0.766E+00   0.515E-02 -.860E-02 0.514E-02
   0.405E+01 0.926E+02 0.260E+03   -.294E+01 -.954E+02 -.263E+03   -.152E+00 0.375E+01 0.216E+01   0.993E-02 0.482E-02 0.625E-03
   -.797E+02 -.722E+02 -.119E+03   0.835E+02 0.738E+02 0.121E+03   -.356E+01 -.185E+01 -.587E+00   -.473E-02 -.226E-01 0.425E-02
   -.421E+02 -.297E+02 -.170E+03   0.409E+02 0.314E+02 0.172E+03   -.398E+00 0.259E+01 0.907E+00   -.196E-02 -.160E-01 -.631E-02
   0.108E+02 -.510E+01 -.131E+03   -.116E+02 0.375E+01 0.133E+03   -.344E+01 -.157E+01 0.587E+00   -.805E-02 -.156E-01 0.536E-03
   -.315E+02 -.160E+02 -.108E+03   0.325E+02 0.149E+02 0.108E+03   0.291E+01 -.217E+01 0.112E+01   0.314E-02 -.239E-01 0.462E-02
   0.898E+02 -.850E+02 0.168E+03   -.918E+02 0.889E+02 -.169E+03   0.356E+01 -.266E+01 0.362E+00   -.360E-02 0.193E-01 0.668E-02
   -.130E+02 0.534E+02 -.228E+03   0.131E+02 -.574E+02 0.231E+03   -.755E-01 0.414E+01 -.181E+01   -.976E-02 -.335E-03 -.184E-02
   -.104E+03 -.312E+02 -.730E+02   0.107E+03 0.328E+02 0.749E+02   -.396E+01 -.135E+01 -.143E+01   -.331E-01 -.147E-01 -.702E-02
   -.173E+02 0.454E+02 0.205E+03   0.180E+02 -.461E+02 -.209E+03   -.339E+00 0.148E+01 0.315E+01   0.612E-01 0.167E-01 0.945E-02
   -.240E+03 -.402E+02 0.273E+03   0.283E+03 0.628E+02 -.291E+03   -.318E+02 -.165E+02 0.130E+02   0.553E-02 0.236E-01 0.471E-02
   0.194E+03 -.189E+03 -.289E+03   -.235E+03 0.211E+03 0.306E+03   0.311E+02 -.167E+02 -.107E+02   0.283E-02 -.959E-02 0.158E-02
   0.650E+01 0.212E+03 0.481E+03   -.301E+01 -.251E+03 -.513E+03   -.187E+01 0.293E+02 0.224E+02   -.298E-01 0.474E-01 0.334E-01
   -.437E+02 0.173E+03 0.508E+03   0.415E+02 -.209E+03 -.545E+03   0.178E+01 0.279E+02 0.255E+02   0.177E-01 0.395E-01 0.361E-01
   0.240E+03 -.122E+03 -.137E+03   -.280E+03 0.149E+03 0.138E+03   0.301E+02 -.194E+02 -.198E-01   -.165E-01 0.929E-02 -.239E-02
   -.181E+03 -.991E+02 0.308E+03   0.222E+03 0.112E+03 -.337E+03   -.306E+02 -.102E+02 0.197E+02   -.208E-02 0.327E-02 0.551E-02
   -.544E+01 -.244E+01 -.294E+02   0.585E+01 0.213E+01 0.310E+02   -.202E+00 0.151E+00 -.105E+01   -.332E-02 -.159E-02 0.243E-02
   0.195E+02 -.272E+02 -.118E+03   -.195E+02 0.283E+02 0.124E+03   0.258E+00 -.772E+00 -.404E+01   0.656E-02 0.680E-03 0.569E-02
   -.348E+01 -.742E+02 -.368E+03   0.325E+02 0.932E+02 0.403E+03   -.226E+02 -.141E+02 -.239E+02   0.235E-01 0.190E-01 0.845E-02
   0.107E+02 0.818E+02 -.926E+02   -.378E+02 -.773E+02 0.107E+03   0.192E+02 -.412E+01 -.106E+02   0.212E-01 0.634E-02 0.115E-02
   -.198E+02 0.141E+03 0.150E+03   0.237E+02 -.187E+03 -.165E+03   -.233E+01 0.341E+02 0.977E+01   0.667E-02 -.298E-01 0.163E-01
   -.815E+00 0.138E+03 0.168E+03   -.205E+01 -.183E+03 -.183E+03   0.154E+01 0.340E+02 0.984E+01   0.156E-01 -.141E-01 0.181E-01
   0.516E+02 -.726E+02 -.404E+03   -.868E+02 0.923E+02 0.431E+03   0.272E+02 -.145E+02 -.180E+02   -.506E-02 -.224E-01 -.121E-01
   -.283E+01 0.934E+02 -.130E+03   0.275E+02 -.897E+02 0.151E+03   -.176E+02 -.353E+01 -.143E+02   0.506E-01 0.234E-01 0.210E-01
   0.593E+02 0.216E+02 0.916E+02   -.658E+02 -.261E+02 -.918E+02   0.390E+01 0.279E+01 -.321E+00   0.790E-02 0.253E-01 0.871E-02
   0.174E+02 0.480E+02 0.182E+03   -.203E+02 -.501E+02 -.188E+03   0.203E+01 0.163E+01 0.400E+01   -.680E-01 0.207E-01 0.641E-02
   -.236E+03 -.128E+03 -.149E+03   0.277E+03 0.155E+03 0.151E+03   -.303E+02 -.184E+02 -.101E+01   -.111E-01 -.175E-01 0.954E-02
   0.185E+03 -.844E+02 0.239E+03   -.228E+03 0.971E+02 -.263E+03   0.317E+02 -.992E+01 0.166E+02   0.129E-02 -.253E-01 0.124E-01
   0.116E+02 0.199E+03 0.526E+03   -.622E+01 -.237E+03 -.560E+03   -.429E+01 0.289E+02 0.230E+02   0.397E-01 -.604E-02 -.542E-02
   0.301E+01 0.291E+03 0.438E+03   -.553E+01 -.338E+03 -.454E+03   0.765E+00 0.341E+02 0.108E+02   -.861E-02 -.101E-01 -.624E-02
   0.242E+03 -.416E+02 0.166E+03   -.285E+03 0.661E+02 -.175E+03   0.323E+02 -.176E+02 0.648E+01   0.248E-01 -.642E-02 0.552E-02
   -.177E+03 -.194E+03 -.355E+03   0.216E+03 0.217E+03 0.376E+03   -.297E+02 -.164E+02 -.137E+02   -.720E-03 -.348E-01 0.262E-02
   0.962E+00 -.397E+02 -.159E+02   -.840E+00 0.416E+02 0.126E+02   -.160E+00 -.112E+01 0.209E+01   -.330E-03 -.205E-01 0.872E-02
   -.188E+02 -.309E+02 -.230E+03   0.182E+02 0.338E+02 0.238E+03   0.175E+00 -.209E+01 -.542E+01   -.527E-02 -.253E-01 -.154E-02
   -.277E+03 -.808E+02 -.113E+03   0.319E+03 0.105E+03 0.115E+03   -.311E+02 -.184E+02 -.136E+01   -.333E-01 -.261E-01 -.427E-02
   0.219E+03 -.183E+03 0.371E+03   -.262E+03 0.204E+03 -.383E+03   0.309E+02 -.168E+02 0.654E+01   -.341E-01 0.165E-01 0.708E-02
   -.111E+00 0.184E+03 -.468E+03   0.624E+01 -.222E+03 0.501E+03   -.413E+01 0.288E+02 -.229E+02   -.321E-02 0.437E-02 -.235E-02
   -.428E+02 0.142E+03 -.526E+03   0.411E+02 -.177E+03 0.564E+03   0.109E+01 0.274E+02 -.263E+02   -.195E-01 -.657E-02 -.878E-02
   0.232E+03 -.158E+03 0.287E+03   -.265E+03 0.188E+03 -.305E+03   0.246E+02 -.225E+02 0.121E+02   0.325E-02 0.202E-01 0.951E-02
   -.207E+03 -.911E+02 -.225E+03   0.251E+03 0.103E+03 0.246E+03   -.322E+02 -.993E+01 -.141E+02   -.632E-01 -.474E-02 -.143E-01
   -.559E+02 0.251E+02 0.536E+02   0.605E+02 -.288E+02 -.575E+02   -.261E+01 0.215E+01 0.209E+01   -.533E-02 -.105E-01 -.532E-02
   0.564E+02 -.139E+03 -.121E+04   -.583E+02 0.162E+03 0.124E+04   0.148E+01 -.196E+02 -.265E+02   0.132E+00 0.153E-01 -.516E-01
   0.303E+01 -.419E+01 0.545E+01   -.213E-13 -.313E-12 0.114E-11   -.313E+01 0.420E+01 -.562E+01   0.107E+00 0.987E-02 0.192E+00

 POSITION                                       TOTAL-FORCE (eV/Angst)
     -0.01316      2.17975      5.62933        -0.019077      4.489373     -1.532724
      1.07413      4.05469      5.71769        -5.094560      0.492537     -0.006772
     -1.12190      4.01462      5.64019         4.970345      0.528575      0.541939
      5.06060      0.58193      6.67516         0.014444     -0.592326      0.917162
      3.06949      4.05359      5.44534        -0.380594      1.278084     -0.677021
      1.04359      0.52397      5.92259        -0.110261     -0.510211     -0.324612
     -3.16220      7.31064      6.38750         0.954706      3.543449      2.195915
     -1.95759      9.11260      6.61586        -3.414118     -3.146394      0.520281
     -4.12091      9.19662      6.57525         3.688912     -3.051119      0.893306
      2.11714      5.56749      6.62513        -1.050940     -0.825086      0.428042
      0.03468      9.03552      6.45440         0.136492     -0.570626     -1.007972
     -2.24328      5.56462      6.34486         0.906560     -1.256824      1.486303
      6.14818      2.19089      6.23970         0.220914      3.545215     -1.871246
      7.13142      3.87956      5.27845        -3.967780     -1.717000     -0.920799
      5.03388      3.95583      5.74809         4.109324     -2.871529     -0.681845
     11.12684      0.38054      6.08124        -0.041788     -0.747787     -0.379741
      9.10565      3.82016      5.19922         0.975749      0.931916     -1.075477
      7.18743      0.57041      6.75882         0.281650     -0.276221      0.802827
      3.13859      7.21641      7.01248        -1.642445      4.259215      2.137239
      4.15672      9.10195      6.90202        -4.216291     -2.937529      2.165148
      1.98816      9.08293      6.88152         3.883631     -3.298564      1.501396
      8.00253      5.63506      5.55073         1.555914      1.290605     -0.287787
      6.13375      9.12009      7.05757         0.008451      0.121815      1.227203
      4.19041      5.60409      6.46616        -1.116891      0.298845      0.428702
     -0.01263      3.42442      5.61037         0.390676      0.768651     -0.921483
      1.02640      1.62902      5.55657        10.390966      6.136297     -4.993298
      4.08546     -0.03785      6.89248       -10.200179      5.819782      6.328409
      4.08741      3.54163      5.17950         1.595947     -9.745158     -9.632202
      2.00208      3.65485      5.14474        -0.430444     -8.031061    -10.508364
      5.08352      1.73404      6.50960       -10.260616      8.472817      1.545515
     -4.08564     10.14388      5.89587        10.238740      3.063379     -8.602672
      0.01481      0.01882      6.37351         0.206555     -0.153699      0.555749
     -3.05517      8.52308      6.60343         0.270233      0.294512      1.855071
     -2.29789      6.61846      6.83480         6.416253      4.950173     10.362139
      1.07365      4.99891      6.48847        -7.925518      0.461797      3.729478
      1.06586      8.46580      6.46435         1.604607    -11.690946     -4.995545
     -0.99396      8.47934      6.32773        -1.306544    -11.656887     -5.017108
      2.13196      6.58563      7.19181        -7.962964      5.165519      9.019052
     -1.21927      4.95378      6.40353         7.176260      0.128093      5.805458
      9.01992      4.93836      5.75504        -2.543480     -1.650146     -0.477461
      6.11897      3.28585      5.66699        -0.860140     -0.496609     -2.115259
      7.19592      1.71806      6.53714        10.534425      8.135572      1.015920
      4.06995     10.01115      6.17561       -10.694154      2.735794     -7.980083
     -1.98665      3.58072      5.00019         1.168296     -8.478368    -10.515266
      8.10601      3.25859      5.00978        -1.769649    -12.615186     -5.729461
     11.11569      1.49050      5.74373       -10.776327      6.836770     -2.586022
      8.11634     -0.05830      7.12115         9.326663      5.925552      7.383694
      6.12652     -0.04477      6.57768        -0.041614      0.698263     -1.219227
      3.07193      8.45342      7.05143        -0.446207      0.749549      2.543440
      4.17371      6.73596      6.76453        11.314022      6.300865      0.254994
      7.05082      5.07485      5.22386       -11.969120      4.351518     -5.800347
     -5.00267      8.77617      7.24254         1.994192     -9.471112      9.410794
      5.10997      8.70389      7.47186        -0.660073     -7.658394     11.127039
     -4.07361      6.96953      5.73612        -9.024111      7.863224     -5.955158
      5.13959      4.94407      6.38643        12.006776      1.788437      6.381811
      3.10351      5.07950      6.16653         1.952812     -1.559047     -1.818069
     -0.11787      6.05367      7.36289        -0.368629      3.581631      5.068998
    total drift:                                0.009965      0.021122      0.020329

  FREE ENERGIE OF THE ION-ELECTRON SYSTEM (eV)
  free  energy   TOTEN  =      -406.31098040 eV

  energy  without entropy=     -406.31098040  energy(sigma->0) =     -406.31098040

 stress matrix after NEB project (eV)
    609.11960    -10.97914     16.72112
    -10.97914    546.00688     30.35437
     16.72112     30.35437    121.10491
  FORCES: max atom, RMS    13.994269    8.870102
  FORCE total and by dimension   66.967804   12.615186
  Stress total and by dimension  828.528604  609.119598

 total charge

[...]

 magnetization (x)

# of ion       s       p       d       tot
    1       -0.000  -0.000   0.000  -0.000
    2       -0.000  -0.000   0.000  -0.000
    3       -0.000  -0.000   0.000  -0.000
    4       -0.000  -0.000   0.000  -0.000
    5       -0.000  -0.000   0.000  -0.000
    6       -0.000  -0.000   0.000  -0.000
    7       -0.000  -0.000   0.000  -0.000
    8       -0.000  -0.000   0.000  -0.000
    9       -0.000  -0.000   0.000  -0.000
   10       -0.000  -0.000   0.000  -0.000
   11       -0.000  -0.000   0.000  -0.000
   12       -0.000  -0.000   0.000  -0.000
   13       -0.000  -0.000   0.000  -0.000
   14       -0.000  -0.000   0.000  -0.000
   15       -0.000   0.000   0.000   0.000
   16       -0.000  -0.000   0.000  -0.000
   17       -0.000  -0.000   0.000  -0.000
   18        0.000  -0.000   0.000  -0.000
   19       -0.000  -0.000   0.000  -0.000
   20       -0.000   0.000   0.000  -0.000
   21       -0.000  -0.000   0.000  -0.000
   22       -0.000  -0.000   0.000  -0.000
   23       -0.000  -0.000   0.000  -0.000
   24       -0.000  -0.000   0.000  -0.000
   25        0.000   0.000   0.000   0.000
   26        0.000   0.000   0.000   0.000
   27        0.000   0.000   0.000   0.000
   28       -0.000   0.000   0.000   0.000
   29        0.000   0.000   0.000   0.000
   30       -0.000   0.000   0.000   0.000
   31        0.000   0.000   0.000   0.000
   32        0.000   0.000   0.000   0.000
   33        0.000   0.000   0.000   0.000
   34       -0.000  -0.000   0.000  -0.000
   35       -0.000  -0.000   0.000  -0.000
   36        0.000  -0.000   0.000  -0.000
   37        0.000  -0.000   0.000  -0.000
   38       -0.000  -0.000   0.000  -0.000
   39       -0.000   0.000   0.000  -0.000
   40        0.000   0.000   0.000   0.000
   41        0.000   0.000   0.000   0.000
   42       -0.000   0.000   0.000   0.000
   43       -0.000   0.000   0.000   0.000
   44        0.000   0.000   0.000   0.000
   45        0.000   0.000   0.000   0.000
   46        0.000   0.000   0.000   0.000
   47        0.000   0.000   0.000   0.000
   48        0.000   0.000   0.000   0.000
   49       -0.000   0.000   0.000   0.000
   50        0.000   0.000   0.000   0.000
   51        0.000   0.000   0.000   0.000
   52       -0.000   0.000   0.000   0.000
   53        0.000  -0.000   0.000  -0.000
   54        0.000   0.000   0.000   0.000
   55       -0.000  -0.000   0.000  -0.000
   56        0.000   0.000   0.000   0.000
   57       -0.000   0.000   0.000   0.000
tot         -0.000   0.000   0.000   0.000

 BZINTS: Fermi energy: -0.399100;270.000000 electrons
         Band energy:***********;  BLOECHL correction:  0.000000