 vasp.5.4.4.18Apr17-6-g9f103f2a35 (build Nov  8 2022 18:58:45) complex
 executed on             LinuxGNU date 2023.04.13  15:54:36

 INCAR:
 POTCAR:    PAW_PBE C 08Apr2002
 POTCAR:    PAW_PBE N 08Apr2002
 POTCAR:    PAW_PBE Ge_d 03Jul2007
 POTCAR:    PAW_PBE C 08Apr2002
 POTCAR:    PAW_PBE O 08Apr2002
 POTCAR:    PAW_PBE C 08Apr2002
   VRHFIN =C: s2p2

   TITEL  = PAW_PBE C 08Apr2002
   POMASS =   12.011; ZVAL   =    4.000    mass and valenz
   ENMAX  =  400.000; ENMIN  =  300.000 eV

[...]

   TITEL  = PAW_PBE Ge_d 03Jul2007
   POMASS =   72.610; ZVAL   =   14.000    mass and valenz
   ENMAX  =  310.294; ENMIN  =  232.720 eV

[...]

   TITEL  = PAW_PBE O 08Apr2002
   POMASS =   16.000; ZVAL   =    6.000    mass and valenz
   ENMAX  =  400.000; ENMIN  =  300.000 eV

  PAW_PBE C 08Apr2002                   :
  PAW_PBE N 08Apr2002                   :
  PAW_PBE Ge_d 03Jul2007                :
  PAW_PBE C 08Apr2002                   :
  PAW_PBE O 08Apr2002                   :

 POSCAR: POSCAR-c3n4
  positions in cartesian coordinates
 exchange correlation table for  LEXCH =        8
   RHO(1)=    0.500       N(1)  =     2000
   RHO(2)=  100.500       N(2)  =     4000

 ion  position               nearest neighbor table
   1  0.106  0.214  0.436-  26 1.15  46 1.15  25 1.22   6 1.94  16 1.94
   2  0.288  0.399  0.443-  29 1.14  35 1.19  25 1.23   5 1.97  10 2.00
   3  0.104  0.392  0.437-  44 1.13  39 1.19  25 1.23  17 1.96  12 1.99
   4  0.447  0.064  0.516-  30 1.14  27 1.15  48 1.21  13 1.95   8 1.95
   5  0.453  0.401  0.422-  28 1.14  29 1.15  56 1.23  15 1.94   2 1.97
   6  0.112  0.053  0.459-  26 1.14  31 1.15  32 1.20   9 1.93   1 1.94  16 2.06
   7  0.096  0.712  0.494-  54 1.14  34 1.17  33 1.21  12 1.93  22 1.96
   8  0.284  0.890  0.511-  27 1.15  37 1.16  33 1.22   4 1.95  11 1.95
   9  0.109  0.895  0.508-  31 1.14  52 1.16  33 1.23   6 1.93  23 1.94
  10  0.448  0.548  0.512-  38 1.14  56 1.17  35 1.17  19 1.93   2 2.00  24 2.03  57 2.35
  11  0.445  0.885  0.499-  37 1.15  36 1.15  48 1.19  21 1.95   8 1.95
  12  0.087  0.542  0.491-  34 1.14  40 1.16  39 1.17   7 1.93   3 1.99  22 2.06  57 2.35
  13  0.616  0.223  0.483-  42 1.16  30 1.16  41 1.21   4 1.95  18 1.95
  14  0.780  0.390  0.410-  45 1.16  51 1.17  41 1.21  17 1.93  22 1.93
  15  0.610  0.394  0.445-  28 1.15  55 1.15  41 1.25  24 1.94   5 1.94
  16  0.940  0.052  0.471-  46 1.13  43 1.15  32 1.20  20 1.93   1 1.94   6 2.06
  17  0.941  0.387  0.404-  45 1.14  44 1.15  40 1.22  14 1.93   3 1.96
  18  0.623  0.066  0.522-  42 1.14  47 1.15  48 1.21  13 1.95  21 1.95
  19  0.613  0.711  0.541-  50 1.14  38 1.17  49 1.21  10 1.93  24 1.96
  20  0.790  0.897  0.533-  43 1.14  53 1.15  49 1.24  16 1.93  23 1.94
  21  0.609  0.892  0.531-  47 1.15  36 1.16  49 1.24  18 1.95  11 1.95
  22  0.938  0.563  0.430-  51 1.13  54 1.16  40 1.22  14 1.93   7 1.96  12 2.06
  23  0.954  0.902  0.545-  52 1.15  53 1.15  32 1.20  20 1.94   9 1.94
  24  0.621  0.555  0.500-  55 1.13  50 1.14  56 1.22  15 1.94  19 1.96  10 2.03
  25  0.167  0.335  0.435-   1 1.22   3 1.23   2 1.23
  26  0.165  0.161  0.431-   6 1.14   1 1.15
  27  0.336  0.002  0.532-   8 1.15   4 1.15
  28  0.512  0.352  0.402-   5 1.14  15 1.15
  29  0.345  0.361  0.400-   2 1.14   5 1.15
  30  0.506  0.177  0.503-   4 1.14  13 1.16
  31  0.159  0.988  0.457-   9 1.14   6 1.15
  32  0.002  0.002  0.493-  16 1.20  23 1.20   6 1.20
  33  0.165  0.831  0.510-   7 1.21   8 1.22   9 1.23
  34  0.134  0.645  0.528-  12 1.14   7 1.17  57 2.26
  35  0.334  0.491  0.501-  10 1.17   2 1.19  57 1.77
  36  0.503  0.831  0.500-  11 1.15  21 1.16
  37  0.333  0.829  0.489-  11 1.15   8 1.16
  38  0.499  0.648  0.555-  10 1.14  19 1.17  57 2.27
  39  0.142  0.484  0.495-  12 1.17   3 1.19  57 1.79
  40  0.988  0.496  0.446-  12 1.16  22 1.22  17 1.22
  41  0.667  0.330  0.439-  13 1.21  14 1.21  15 1.25
  42  0.680  0.178  0.505-  18 1.14  13 1.16
  43  0.827  0.986  0.478-  20 1.14  16 1.15
  44  0.011  0.348  0.389-   3 1.13  17 1.15
  45  0.830  0.330  0.389-  17 1.14  14 1.16
  46  0.993  0.161  0.445-  16 1.13   1 1.15
  47  0.669  0.005  0.549-  21 1.15  18 1.15
  48  0.505  0.004  0.508-  11 1.19  18 1.21   4 1.21
  49  0.668  0.832  0.544-  19 1.21  21 1.24  20 1.24
  50  0.675  0.666  0.522-  19 1.14  24 1.14
  51  0.832  0.507  0.406-  22 1.13  14 1.17
  52  0.016  0.853  0.559-  23 1.15   9 1.16
  53  0.849  0.860  0.576-  20 1.15  23 1.15
  54  0.004  0.677  0.444-   7 1.14  22 1.16
  55  0.668  0.491  0.494-  24 1.13  15 1.15
  56  0.506  0.502  0.477-  10 1.17  24 1.22   5 1.23
  57  0.287  0.593  0.568-  35 1.77  39 1.79  34 2.26  38 2.27  10 2.35  12 2.35
  58  0.287  0.593  0.966-  59 1.00
  59  0.232  0.530  0.023-  58 1.00

IMPORTANT INFORMATION: All symmetrisations will be switched off!
NOSYMM: (Re-)initialisation of all symmetry stuff for point group C_1.

 KPOINTS: K-Points

Automatic generation of k-mesh.
Space group operators:
 irot       det(A)        alpha          n_x          n_y          n_z        tau_x        tau_y        tau_z
    1     1.000000     0.000000     1.000000     0.000000     0.000000     0.000000     0.000000     0.000000

 Subroutine IBZKPT returns following result:

 Found      5 irreducible k-points:

 Following reciprocal coordinates:
            Coordinates               Weight
  0.000000  0.000000  0.000000      1.000000
  0.333333  0.000000  0.000000      2.000000
  0.000000  0.333333  0.000000      2.000000
  0.333333  0.333333  0.000000      2.000000
 -0.333333  0.333333  0.000000      2.000000

 Following cartesian coordinates:
            Coordinates               Weight
  0.000000  0.000000  0.000000      1.000000
  0.024277  0.014368  0.000000      2.000000
  0.000396  0.028736  0.000000      2.000000
  0.024673  0.043104  0.000000      2.000000
 -0.023881  0.014368  0.000000      2.000000

 TETIRR: Found     24 inequivalent tetrahedra from       54

 SYSTEM =  unknown system
 POSCAR =  POSCAR-c3n4

 Startparameter for this run:
   NWRITE =      2    write-flag & timer
   PREC   = normal    normal or accurate (medium, high low for compatibility)
   ISTART =      0    job   : 0-new  1-cont  2-samecut
   ICHARG =      2    charge: 1-file 2-atom 10-const
   ISPIN  =      2    spin polarized calculation?
   LNONCOLLINEAR =      F non collinear calculations
   LSORBIT =      F    spin-orbit coupling
   INIWAV =      1    electr: 0-lowe 1-rand  2-diag
   LASPH  =      F    aspherical Exc in radial PAW
   METAGGA=      F    non-selfconsistent MetaGGA calc.

 Electronic Relaxation 1
   ENCUT  =  440.0 eV  32.34 Ry    5.69 a.u.  20.36 19.99 22.06*2*pi/ulx,y,z
   ENINI  =  440.0     initial cutoff
   ENAUG  =  644.9 eV  augmentation charge cutoff
   NELM   =    100;   NELMIN=  2; NELMDL= -5     # of ELM steps
   EDIFF  = 0.1E-03   stopping-criterion for ELM
   LREAL  =      F    real-space projection
   NLSPLINE    = F    spline interpolate recip. space projectors
   LCOMPAT=      F    compatible to vasp.4.4
   GGA_COMPAT  = T    GGA compatible to vasp.4.4-vasp.4.6
   LMAXPAW     = -100 max onsite density
   LMAXMIX     =    2 max onsite mixed and CHGCAR
   VOSKOWN=      0    Vosko Wilk Nusair interpolation
   ROPT   =    0.00000   0.00000   0.00000   0.00000
   ROPT   =    0.00000
 Ionic relaxation
   EDIFFG = -.1E-01   stopping-criterion for IOM
   NSW    =      0    number of steps for IOM
   NBLOCK =      1;   KBLOCK =      1    inner block; outer block
   IBRION =     -1    ionic relax: 0-MD 1-quasi-New 2-CG
   NFREE  =      0    steps in history (QN), initial steepest desc. (CG)
   ISIF   =      2    stress and relaxation
   IWAVPR =     10    prediction:  0-non 1-charg 2-wave 3-comb
   ISYM   =      0    0-nonsym 1-usesym 2-fastsym
   LCORR  =      T    Harris-Foulkes like correction to forces

   POTIM  = 0.5000    time-step for ionic-motion
   TEIN   =    0.0    initial temperature
   TEBEG  =    0.0;   TEEND  =   0.0 temperature during run
   SMASS  =  -3.00    Nose mass-parameter (am)
   estimated Nose-frequenzy (Omega)   =  0.10E-29 period in steps =****** mass=  -0.324E-26a.u.
   SCALEE = 1.0000    scale energy and forces
   NPACO  =    256;   APACO  = 16.0  distance and # of slots for P.C.
   PSTRESS=    0.0 pullay stress

  Mass of Ions in am
   POMASS =  12.01 14.00 72.61 12.01 16.00
  Ionic Valenz
   ZVAL   =   4.00  5.00 14.00  4.00  6.00
  Atomic Wigner-Seitz radii
  virtual crystal weights
   VCA    =   1.00  1.00  1.00  1.00  1.00
   NELECT =     280.0000    total number of electrons
   NUPDOWN=      -1.0000    fix difference up-down

 DOS related values:
   EMIN   = -14.00;   EMAX   =  6.00  energy-range for DOS
   EFERMI =   0.00
   ISMEAR =    -5;   SIGMA  =   0.20  broadening in eV -4-tet -1-fermi 0-gaus

 Electronic relaxation 2 (details)
   IALGO  =     38    algorithm
   LDIAG  =      T    sub-space diagonalisation (order eigenvalues)
   LSUBROT=      F    optimize rotation matrix (better conditioning)
   TURBO    =      0    0=normal 1=particle mesh
   IRESTART =      0    0=no restart 2=restart with 2 vectors
   NREBOOT  =      0    no. of reboots
   NMIN     =      0    reboot dimension
   EREF     =   0.00    reference energy to select bands
   IMIX   =      4    mixing-type and parameters
     AMIX     =   0.25;   BMIX     =  0.00
     AMIX_MAG =   1.00;   BMIX_MAG =  0.00
     AMIN     =   0.10
     WC   =   100.;   INIMIX=   1;  MIXPRE=   1;  MAXMIX= -45

 Intra band minimization:
   WEIMIN = 0.0000     energy-eigenvalue tresh-hold
   EBREAK =  0.15E-06  absolut break condition
   DEPER  =   0.30     relativ break condition

   TIME   =   0.40     timestep for ELM

  volume/ion in A,a.u.               =      25.97       175.24
  Fermi-wavevector in a.u.,A,eV,Ry     =   0.929038  1.755628 11.743358  0.863112
  Thomas-Fermi vector in A             =   2.055279

 Write flags
   LWAVE        =      F    write WAVECAR
   LDOWNSAMPLE  =      F    k-point downsampling of WAVECAR
   LCHARG       =      F    write CHGCAR
   LVTOT        =      F    write LOCPOT, total local potential
   LVHAR        =      F    write LOCPOT, Hartree potential only
   LELF         =      F    write electronic localiz. function (ELF)
   LORBIT       =     11    0 simple, 1 ext, 2 COOP (PROOUT), +10 PAW based schemes

 Dipole corrections
   LMONO  =      F    monopole corrections only (constant potential shift)
   LDIPOL =      F    correct potential (dipole corrections)
   IDIPOL =      0    1-x, 2-y, 3-z, 4-all directions
   EPSILON=  1.0000000 bulk dielectric constant

 Exchange correlation treatment:
   GGA     =    --    GGA type
   VOSKOWN=      0    Vosko Wilk Nusair interpolation
   LHFCALC =     F    Hartree Fock is set to
   LHFONE  =     F    Hartree Fock one center treatment
   AEXX    =    0.0000 exact exchange contribution

 Linear response parameters
   LEPSILON=     F    determine dielectric tensor
   LRPA    =     F    only Hartree local field effects (RPA)
   LNABLA  =     F    use nabla operator in PAW spheres
   LVEL    =     F    velocity operator in full k-point grid
   LINTERFAST=   F  fast interpolation
   KINTER  =     0    interpolate to denser k-point grid
[...]
  Total     762.70348   693.35765   167.83821    -8.72775    24.99961    15.15216
  in kB     797.59953   725.08091   175.51733    -9.12707    26.14342    15.84542

 VOLUME and BASIS-vectors are now :
  energy-cutoff  :      440.00
  volume of cell :     1532.08
      direct lattice vectors                 reciprocal lattice vectors
    11.905344842 -0.164036808  0.000000000     0.084686476  0.050121063 -0.000000000
    -5.952672421 10.057864255  0.000000000     0.001381178  0.100242126 -0.000000000
     0.000000000  0.000000000 12.900000000    -0.000000000 -0.000000000  0.077519380

  length of vectors
    11.906474872 11.687383895 12.900000000     0.098406911  0.100251641  0.077519380

 FORCES acting on ions
    electron-ion (+dipol)            ewald-force                    non-local-force                 convergence-correction
   -.745E+01 0.199E+02 0.144E+03   0.769E+01 -.183E+02 -.144E+03   -.246E+00 0.401E+01 -.152E+01   -.163E-01 -.879E-02 -.370E-03
   -.711E+01 0.400E+02 0.157E+03   0.428E+01 -.404E+02 -.157E+03   -.361E+01 0.108E+01 0.280E+00   -.137E-01 -.141E-01 -.967E-02
   -.111E+02 0.434E+02 0.154E+03   0.142E+02 -.437E+02 -.154E+03   0.324E+01 0.100E+01 0.673E+00   -.402E-01 -.109E-01 -.943E-02
   0.878E+02 -.740E+02 -.109E+03   -.915E+02 0.752E+02 0.110E+03   0.379E+01 -.201E+01 -.430E+00   0.318E-01 -.196E-01 -.950E-04
   -.224E+02 0.707E+02 0.248E+03   0.223E+02 -.732E+02 -.252E+03   -.361E+00 0.414E+01 0.250E+01   0.121E-01 -.184E-03 -.273E-02
   -.820E+02 -.220E+02 0.120E+03   0.855E+02 0.232E+02 -.122E+03   -.373E+01 -.191E+01 0.154E+01   -.774E-02 -.131E-01 0.310E-02
   0.557E+02 -.339E+02 -.414E+02   -.553E+02 0.356E+02 0.433E+02   0.804E+00 0.265E+01 0.874E+00   -.315E-02 -.886E-03 -.482E-02
   0.307E+02 -.261E+02 -.612E+02   -.319E+02 0.243E+02 0.613E+02   -.303E+01 -.213E+01 0.569E+00   0.579E-02 -.309E-02 0.655E-02
   -.500E+01 -.512E+01 -.748E+02   0.617E+01 0.298E+01 0.756E+02   0.345E+01 -.168E+01 0.364E+00   0.129E-01 -.113E-01 -.275E-02
   -.358E+02 0.219E+02 -.902E+02   0.334E+02 -.210E+02 0.921E+02   0.123E+01 -.205E+01 -.143E+01   0.100E-01 0.254E-01 0.126E-01
   -.456E+01 0.234E+02 0.594E+02   0.463E+01 -.280E+02 -.600E+02   0.988E-01 0.404E+01 -.638E+00   0.265E-02 0.248E-01 0.180E-01
   0.454E+02 0.196E+02 -.823E+02   -.430E+02 -.187E+02 0.851E+02   -.133E+01 -.254E+01 -.939E+00   -.260E-01 -.210E-02 -.108E-01
   -.428E+01 -.179E+02 -.211E+02   0.476E+01 0.185E+02 0.195E+02   -.232E+00 0.388E+01 -.802E+00   0.191E-01 -.164E-01 -.257E-02
   0.478E+02 0.359E+02 0.241E+03   -.494E+02 -.367E+02 -.241E+03   -.338E+01 -.139E+01 -.111E+01   0.323E-01 -.281E-02 0.521E-02
   -.141E+02 0.263E+02 0.108E+03   0.157E+02 -.286E+02 -.108E+03   0.353E+01 -.132E+01 -.507E+00   0.253E-01 -.813E-02 -.459E-03
   0.847E+02 -.204E+02 0.821E+02   -.884E+02 0.214E+02 -.834E+02   0.377E+01 -.201E+01 0.812E+00   -.446E-02 -.961E-02 0.579E-02
   0.919E+01 0.998E+02 0.264E+03   -.776E+01 -.103E+03 -.268E+03   -.205E+00 0.392E+01 0.229E+01   -.130E-01 0.564E-02 0.794E-02
   -.834E+02 -.773E+02 -.124E+03   0.874E+02 0.789E+02 0.125E+03   -.372E+01 -.192E+01 -.631E+00   -.172E-01 -.143E-01 -.362E-02
   -.481E+02 -.317E+02 -.175E+03   0.465E+02 0.344E+02 0.177E+03   -.416E+00 0.266E+01 0.879E+00   0.215E-02 0.297E-01 0.440E-02
   0.894E+01 -.638E+01 -.135E+03   -.107E+02 0.427E+01 0.138E+03   -.354E+01 -.159E+01 0.594E+00   -.177E-01 0.168E-02 -.790E-03
   -.339E+02 -.201E+02 -.110E+03   0.358E+02 0.182E+02 0.111E+03   0.295E+01 -.226E+01 0.120E+01   -.353E-02 0.116E-01 0.698E-02
   0.986E+02 -.889E+02 0.172E+03   -.100E+03 0.933E+02 -.172E+03   0.369E+01 -.284E+01 0.420E+00   0.159E-01 -.173E-01 0.471E-02
   -.135E+02 0.564E+02 -.237E+03   0.136E+02 -.605E+02 0.240E+03   -.829E-01 0.431E+01 -.189E+01   -.365E-02 0.555E-02 -.998E-02
   -.112E+03 -.326E+02 -.764E+02   0.114E+03 0.343E+02 0.784E+02   -.413E+01 -.145E+01 -.151E+01   0.691E-03 0.141E-01 0.467E-02
   -.188E+02 0.533E+02 0.207E+03   0.196E+02 -.538E+02 -.211E+03   -.325E+00 0.158E+01 0.330E+01   -.576E-01 -.172E-01 -.553E-02
   -.252E+03 -.370E+02 0.280E+03   0.297E+03 0.615E+02 -.300E+03   -.322E+02 -.166E+02 0.132E+02   -.134E-01 -.245E-01 0.148E-02
   0.203E+03 -.199E+03 -.300E+03   -.247E+03 0.224E+03 0.319E+03   0.313E+02 -.169E+02 -.106E+02   0.342E-01 -.241E-01 -.148E-02
   0.332E+01 0.222E+03 0.497E+03   0.402E+00 -.264E+03 -.532E+03   -.170E+01 0.294E+02 0.224E+02   0.250E-01 -.175E-01 -.130E-01
   -.510E+02 0.184E+03 0.521E+03   0.488E+02 -.223E+03 -.561E+03   0.163E+01 0.282E+02 0.257E+02   0.328E-02 -.228E-01 -.267E-01
   0.249E+03 -.127E+03 -.142E+03   -.293E+03 0.157E+03 0.144E+03   0.304E+02 -.194E+02 -.193E-01   0.429E-01 -.380E-01 0.215E-02
   -.187E+03 -.103E+03 0.319E+03   0.231E+03 0.118E+03 -.350E+03   -.308E+02 -.105E+02 0.198E+02   0.235E-02 -.249E-01 0.933E-02
   -.570E+01 -.723E+00 -.311E+02   0.618E+01 0.362E+00 0.329E+02   -.204E+00 0.187E+00 -.106E+01   -.682E-02 -.771E-02 -.183E-02
   0.236E+02 -.314E+02 -.123E+03   -.235E+02 0.326E+02 0.129E+03   0.270E+00 -.781E+00 -.409E+01   0.979E-02 -.104E-01 0.332E-03
   0.176E+01 -.791E+02 -.381E+03   0.294E+02 0.997E+02 0.418E+03   -.229E+02 -.143E+02 -.241E+02   -.105E-01 0.886E-02 -.790E-02
   0.667E+01 0.873E+02 -.964E+02   -.360E+02 -.826E+02 0.112E+03   0.192E+02 -.411E+01 -.106E+02   -.203E-01 0.356E-01 0.287E-01
   -.227E+02 0.142E+03 0.157E+03   0.269E+02 -.192E+03 -.173E+03   -.222E+01 0.343E+02 0.972E+01   -.592E-02 0.314E-01 0.253E-01
   0.349E+00 0.138E+03 0.174E+03   -.346E+01 -.187E+03 -.190E+03   0.145E+01 0.342E+02 0.979E+01   0.367E-02 0.163E-01 0.243E-01
   0.477E+02 -.771E+02 -.416E+03   -.855E+02 0.985E+02 0.446E+03   0.275E+02 -.147E+02 -.182E+02   -.363E-02 0.376E-01 0.160E-01
   0.555E+00 0.995E+02 -.137E+03   0.263E+02 -.958E+02 0.158E+03   -.177E+02 -.351E+01 -.144E+02   -.354E-01 0.607E-02 -.616E-03
   0.674E+02 0.233E+02 0.904E+02   -.745E+02 -.282E+02 -.907E+02   0.387E+01 0.279E+01 -.291E+00   -.230E-01 -.154E-01 -.114E-01
   0.187E+02 0.508E+02 0.187E+03   -.220E+02 -.531E+02 -.194E+03   0.206E+01 0.165E+01 0.402E+01   0.561E-01 -.175E-01 -.707E-03
   -.245E+03 -.134E+03 -.156E+03   0.289E+03 0.162E+03 0.158E+03   -.305E+02 -.183E+02 -.106E+01   -.140E-01 -.209E-01 -.632E-02
   0.192E+03 -.873E+02 0.248E+03   -.238E+03 0.101E+03 -.275E+03   0.319E+02 -.102E+02 0.167E+02   -.148E-01 -.137E-01 0.153E-01
   0.170E+02 0.213E+03 0.537E+03   -.113E+02 -.254E+03 -.574E+03   -.416E+01 0.293E+02 0.231E+02   -.362E-01 0.124E-01 0.142E-01
   0.770E+01 0.305E+03 0.450E+03   -.105E+02 -.356E+03 -.468E+03   0.594E+00 0.342E+02 0.109E+02   0.395E-02 0.256E-01 0.186E-01
   0.253E+03 -.382E+02 0.169E+03   -.299E+03 0.647E+02 -.179E+03   0.326E+02 -.177E+02 0.664E+01   -.142E-01 -.820E-03 0.317E-02
   -.185E+03 -.204E+03 -.368E+03   0.227E+03 0.229E+03 0.391E+03   -.300E+02 -.166E+02 -.136E+02   -.256E-01 -.158E-01 -.922E-02
   0.973E+00 -.451E+02 -.162E+02   -.853E+00 0.471E+02 0.125E+02   -.168E+00 -.115E+01 0.205E+01   0.963E-02 0.130E-02 0.105E-01
   -.231E+02 -.345E+02 -.238E+03   0.224E+02 0.376E+02 0.247E+03   0.182E+00 -.212E+01 -.550E+01   -.118E-01 0.248E-01 0.320E-02
   -.292E+03 -.847E+02 -.117E+03   0.338E+03 0.111E+03 0.119E+03   -.313E+02 -.184E+02 -.151E+01   -.571E-02 0.263E-01 0.638E-02
   0.231E+03 -.191E+03 0.382E+03   -.277E+03 0.214E+03 -.396E+03   0.310E+02 -.170E+02 0.651E+01   0.471E-01 -.234E-01 0.102E-01
   0.180E+01 0.191E+03 -.486E+03   0.478E+01 -.232E+03 0.521E+03   -.404E+01 0.290E+02 -.229E+02   0.173E-01 -.111E-02 -.140E-01
   -.461E+02 0.147E+03 -.546E+03   0.442E+02 -.185E+03 0.586E+03   0.994E+00 0.277E+02 -.265E+02   -.229E-01 0.966E-02 -.127E-01
   0.246E+03 -.166E+03 0.296E+03   -.282E+03 0.199E+03 -.316E+03   0.248E+02 -.225E+02 0.120E+02   0.201E-01 -.163E-01 0.777E-02
   -.217E+03 -.947E+02 -.236E+03   0.264E+03 0.107E+03 0.258E+03   -.323E+02 -.102E+02 -.142E+02   0.249E-01 0.155E-02 0.711E-02
   -.633E+02 0.269E+02 0.539E+02   0.683E+02 -.311E+02 -.583E+02   -.256E+01 0.215E+01 0.206E+01   0.225E-01 0.244E-01 0.106E-01
   0.577E+02 -.149E+03 -.124E+04   -.596E+02 0.173E+03 0.127E+04   0.156E+01 -.198E+02 -.279E+02   -.598E-01 0.100E+00 0.276E-01
   -.798E+02 -.182E+03 0.171E+03   0.955E+02 0.217E+03 -.212E+03   -.774E+01 -.175E+02 0.203E+02   -.272E-02 -.134E-03 -.260E-02
   0.657E+02 0.148E+03 -.868E+02   -.932E+02 -.210E+03 0.159E+03   0.196E+02 0.444E+02 -.516E+02   -.287E-02 0.483E-02 -.105E-01
   -.873E+01 -.315E+02 0.383E+02   -.284E-13 -.199E-12 -.682E-12   0.879E+01 0.315E+02 -.385E+02   -.600E-01 0.203E-01 0.140E+00

 POSITION                                       TOTAL-FORCE (eV/Angst)
     -0.01286      2.13021      5.62936        -0.020765      5.610241     -1.906952
      1.04972      3.96254      5.71571        -6.448014      0.643211     -0.021762
     -1.09641      3.92338      5.63998         6.275098      0.692008      0.685739
      4.94559      0.56870      6.65142         0.130750     -0.798884      1.144112
      2.99973      3.96147      5.44955        -0.498053      1.669737     -0.781703
      1.01987      0.51207      5.91596        -0.238721     -0.702775     -0.357103
     -3.09033      7.14449      6.37030         1.213384      4.425956      2.758241
     -1.91310      8.90550      6.59347        -4.275144     -3.941993      0.655961
     -4.02725      8.98760      6.55379         4.637732     -3.837093      1.139000
      2.06903      5.44096      6.60253        -1.248379     -1.101271      0.472451
      0.03389      8.83017      6.43569         0.166874     -0.585748     -1.218856
     -2.19230      5.43816      6.32863         1.093101     -1.648729      1.808066
      6.00845      2.14110      6.22586         0.271554      4.442535     -2.363614
      6.96934      3.79139      5.28646        -4.974920     -2.154183     -1.154493
      4.91948      3.86593      5.74543         5.174338     -3.638203     -0.874665
     10.87396      0.37189      6.07101         0.049576     -0.999470     -0.447533
      8.89870      3.73334      5.20903         1.222428      1.263988     -1.302889
      7.02408      0.55745      6.73318         0.243574     -0.394361      0.987512
      3.06725      7.05241      6.98108        -2.087098      5.329980      2.680767
      4.06225      8.89509      6.87313        -5.304939     -3.692876      2.732343
      1.94297      8.87650      6.85309         4.860329     -4.145637      1.901015
      7.82066      5.50699      5.55255         2.040727      1.554062     -0.329901
      5.99435      8.91281      7.02514         0.008231      0.223848      1.479820
      4.09518      5.47673      6.44717        -1.489054      0.299892      0.534253
     -0.01234      3.34659      5.61084         0.501206      1.012601     -1.218398
      1.00308      1.59199      5.55825        13.378457      7.903699     -6.416180
      3.99261     -0.03699      6.86381       -13.145371      7.473420      8.129510
      3.99452      3.46113      5.18975         2.043924    -12.541160    -12.394104
      1.95658      3.57178      5.15578        -0.541895    -10.347993    -13.508049
      4.96798      1.69463      6.48963       -13.211778     10.860618      1.981470
     -3.99278      9.91334      5.88984        13.181844      3.940579    -11.075567
      0.01447      0.01839      6.35663         0.262959     -0.182373      0.711853
     -2.98573      8.32938      6.58132         0.305184      0.388460      2.399108
     -2.24567      6.46804      6.80744         8.253139      6.362984     13.321991
      1.04925      4.88530      6.46898       -10.102900      0.641746      4.824804
      1.04163      8.27339      6.44540         2.055329    -15.058629     -6.442854
     -0.97137      8.28663      6.31189        -1.653211    -15.033384     -6.467947
      2.08351      6.43596      7.15633       -10.252718      6.637404     11.584419
     -1.19156      4.84120      6.38597         9.128497      0.194789      7.464698
      8.81492      4.82612      5.75222        -3.262225     -2.115164     -0.591700
      5.97991      3.21117      5.66617        -1.150690     -0.628356     -2.714501
      7.03238      1.67902      6.51654        13.579609     10.430592      1.312048
      3.97745      9.78362      6.16323       -13.764272      3.515577    -10.274232
     -1.94150      3.49934      5.01452         1.526159    -10.926051    -13.533566
      7.92178      3.18453      5.02389        -2.235658    -16.232178     -7.372087
     10.86306      1.45662      5.74116       -13.880672      8.797579     -3.305711
      7.93188     -0.05697      7.08728        12.032564      7.605234      9.499161
      5.98728     -0.04375      6.55616        -0.038289      0.873874     -1.564186
      3.00212      8.26130      7.01914        -0.544578      0.999373      3.284814
      4.07886      6.58287      6.73877        14.550264      8.128742      0.309982
      6.89057      4.95951      5.23310       -15.365782      5.677931     -7.427808
     -4.88897      8.57671      7.20591         2.560680    -12.197191     12.119745
      4.99383      8.50607      7.43001        -0.845381     -9.873274     14.319388
     -3.98103      6.81113      5.73373       -11.600993     10.144246     -7.670824
      5.02278      4.83170      6.36926        15.419479      2.364555      8.243778
      3.03298      4.96405      6.15435         2.494738     -1.960196     -2.328959
     -0.11519      5.91609      7.32353        -0.484142      4.621839      6.578549
     -0.11519      5.91609     12.46633         7.962174     17.993606    -20.928129
     -0.39126      5.29186      0.29332        -7.958259    -17.987735     20.929678
    total drift:                               -0.002169      0.016186      0.012001

  FREE ENERGIE OF THE ION-ELECTRON SYSTEM (eV)
  free  energy   TOTEN  =      -385.77989011 eV

  energy  without entropy=     -385.77989011  energy(sigma->0) =     -385.77989011

 total charge

[...]

 magnetization (x)

# of ion       s       p       d       tot
    1       -0.000  -0.000   0.000  -0.000
    2        0.000   0.000   0.000   0.000
    3       -0.000  -0.000   0.000  -0.000
    4       -0.000  -0.000   0.000  -0.000
    5        0.000   0.000   0.000   0.000
    6        0.000   0.000   0.000   0.000
    7       -0.000  -0.000   0.000  -0.000
    8       -0.000  -0.000   0.000  -0.000
    9       -0.000   0.000   0.000   0.000
   10        0.000   0.000   0.000   0.000
   11       -0.000  -0.000   0.000  -0.000
   12        0.000   0.000   0.000   0.000
   13       -0.000  -0.000   0.000  -0.000
   14       -0.000  -0.000   0.000  -0.000
   15        0.000   0.000   0.000   0.000
   16        0.000   0.000   0.000   0.000
   17       -0.000  -0.000   0.000  -0.000
   18        0.000  -0.000   0.000  -0.000
   19        0.000   0.000   0.000   0.000
   20        0.000   0.000   0.000   0.000
   21       -0.000   0.000   0.000   0.000
   22       -0.000  -0.000   0.000  -0.000
   23        0.000   0.000   0.000   0.000
   24        0.000   0.000   0.000   0.000
   25        0.000   0.000   0.000   0.000
   26        0.000  -0.000   0.000  -0.000
   27       -0.000  -0.000   0.000  -0.000
   28        0.000  -0.000   0.000  -0.000
   29       -0.000  -0.000   0.000  -0.000
   30        0.000   0.000   0.000   0.000
   31        0.000  -0.000   0.000  -0.000
   32       -0.000  -0.000   0.000  -0.000
   33       -0.000   0.000   0.000  -0.000
   34       -0.000   0.000   0.000   0.000
   35       -0.000  -0.000   0.000  -0.000
   36        0.000   0.000   0.000   0.000
   37       -0.000  -0.000   0.000  -0.000
   38        0.000  -0.000   0.000  -0.000
   39       -0.000  -0.000   0.000  -0.000
   40       -0.000  -0.000   0.000  -0.000
   41        0.000  -0.000   0.000  -0.000
   42        0.000   0.000   0.000   0.000
   43        0.000  -0.000   0.000  -0.000
   44        0.000   0.000   0.000   0.000
   45        0.000   0.000   0.000   0.000
   46       -0.000  -0.000   0.000  -0.000
   47       -0.000  -0.000   0.000  -0.000
   48       -0.000  -0.000   0.000  -0.000
   49       -0.000  -0.000   0.000  -0.000
   50        0.000  -0.000   0.000  -0.000
   51        0.000   0.000   0.000   0.000
   52       -0.000  -0.000   0.000  -0.000
   53       -0.000  -0.000   0.000  -0.000
   54        0.000   0.000   0.000   0.000
   55        0.000   0.000   0.000   0.000
   56        0.000   0.000   0.000   0.000
   57       -0.000   0.000  -0.000   0.000
   58        0.000   0.000   0.000   0.000
   59       -0.000  -0.000   0.000  -0.000
tot         -0.000  -0.000  -0.000  -0.000

 BZINTS: Fermi energy:  0.074769;280.000000 electrons
         Band energy:***********;  BLOECHL correction:  0.000000