 vasp.5.4.4.18Apr17-6-g9f103f2a35 (build Jan 14 2022 15:04:31) complex

 executed on             LinuxIFC date 2023.01.27  23:15:25

 INCAR:
 POTCAR:    PAW_PBE C 08Apr2002
 POTCAR:    PAW_PBE N 08Apr2002
 POTCAR:    PAW_PBE C 08Apr2002
 POTCAR:    PAW_PBE Cr_pv 02Aug2007
 POTCAR:    PAW_PBE C 08Apr2002
 POTCAR:    PAW_PBE O 08Apr2002

   TITEL  = PAW_PBE C 08Apr2002
   POMASS =   12.011; ZVAL   =    4.000    mass and valenz
   ENMAX  =  400.000; ENMIN  =  300.000 eV

[...]

   TITEL  = PAW_PBE Cr_pv 02Aug2007
   POMASS =   51.996; ZVAL   =   12.000    mass and valenz
   ENMAX  =  265.681; ENMIN  =  199.261 eV

[...]

   TITEL  = PAW_PBE O 08Apr2002
   POMASS =   16.000; ZVAL   =    6.000    mass and valenz
   ENMAX  =  400.000; ENMIN  =  300.000 eV

  PAW_PBE C 08Apr2002                   :
  PAW_PBE N 08Apr2002                   :
  PAW_PBE C 08Apr2002                   :
  PAW_PBE Cr_pv 02Aug2007               :
  PAW_PBE C 08Apr2002                   :
  PAW_PBE O 08Apr2002                   :

 POSCAR: POSCAR-clean
  positions in direct lattice
  velocities in cartesian coordinates
 exchange correlation table for  LEXCH =        8
   RHO(1)=    0.500       N(1)  =     2000
   RHO(2)=  100.500       N(2)  =     4000

 VTST: version 3.2, (02/03/18)

 CHAIN: initializing optimizer

 OPT: Using VASP Dynamics algorithm
 CHAIN: Read ICHAIN            0

 POSCAR: POSCAR-clean
  positions in direct lattice
  velocities in cartesian coordinates

 ion  position               nearest neighbor table
   1  0.001  0.000  0.489-   2 1.42  60 1.42  70 1.43
   2  0.056  0.112  0.489-  13 1.42   1 1.42  15 1.44
   3  0.168  0.002  0.490-   4 1.42  62 1.43  60 1.43
   4  0.223  0.113  0.491-   3 1.42  15 1.42  17 1.43
   5  0.334  0.002  0.490-  62 1.42   6 1.42  64 1.43
   6  0.390  0.114  0.491-  19 1.42   5 1.42  17 1.44
   7  0.500  1.000  0.490-  64 1.42   8 1.42  66 1.43
   8  0.556  0.112  0.490-  21 1.42   7 1.42  19 1.44
   9  0.666  0.998  0.491-  10 1.42  66 1.42  68 1.43
  10  0.721  0.109  0.490-   9 1.42  23 1.43  21 1.43
  11  0.832  0.998  0.491-  12 1.42  70 1.43  68 1.44
  12  0.888  0.109  0.490-  11 1.42  23 1.42  13 1.43
  13  0.999  0.166  0.489-  14 1.41   2 1.42  12 1.43
  14  0.054  0.276  0.490-  13 1.41  25 1.43  27 1.43
  15  0.168  0.168  0.491-  16 1.41   4 1.42   2 1.44
  16  0.223  0.279  0.493-  15 1.41  27 1.42  29 1.42
  17  0.335  0.171  0.493-  18 1.42   4 1.43   6 1.44
  18  0.390  0.282  0.498-  17 1.42  29 1.42  31 1.43
  19  0.501  0.169  0.491-  20 1.42   6 1.42   8 1.44
  20  0.556  0.280  0.493-  19 1.42  33 1.43  31 1.46
  21  0.666  0.166  0.490-  22 1.42   8 1.42  10 1.43
  22  0.722  0.277  0.490-  21 1.42  33 1.43  35 1.43
  23  0.832  0.165  0.490-  24 1.42  12 1.42  10 1.43
  24  0.888  0.276  0.490-  23 1.42  35 1.42  25 1.43
  25  0.999  0.332  0.490-  26 1.42  24 1.43  14 1.43
  26  0.054  0.444  0.490-  39 1.42  37 1.42  25 1.42
  27  0.166  0.333  0.492-  28 1.42  16 1.42  14 1.43
  28  0.219  0.443  0.493-  41 1.40  27 1.42  39 1.42
  29  0.333  0.337  0.500-  30 1.39  16 1.42  18 1.42
  30  0.386  0.445  0.508-  29 1.39  41 1.41  71 2.03
  31  0.501  0.339  0.498-  32 1.42  18 1.43  20 1.46
  32  0.561  0.450  0.504-  43 1.42  31 1.42  71 1.96
  33  0.667  0.333  0.492-  34 1.42  22 1.43  20 1.43
  34  0.724  0.445  0.493-  43 1.41  33 1.42  45 1.42
  35  0.833  0.333  0.490-  36 1.42  24 1.42  22 1.43
  36  0.889  0.444  0.490-  45 1.42  37 1.42  35 1.42
  37  1.000  0.500  0.490-  26 1.42  36 1.42  38 1.42
  38  0.056  0.611  0.490-  47 1.42  49 1.42  37 1.42
  39  0.164  0.499  0.492-  26 1.42  28 1.42  40 1.42
  40  0.221  0.611  0.492-  49 1.42  39 1.42  51 1.42
  41  0.328  0.497  0.498-  28 1.40  30 1.41  42 1.44
  42  0.385  0.610  0.498-  53 1.41  51 1.42  41 1.44
  43  0.671  0.501  0.498-  34 1.41  32 1.42  44 1.43
  44  0.728  0.613  0.499-  57 1.41  55 1.41  43 1.43
  45  0.835  0.500  0.492-  36 1.42  46 1.42  34 1.42
  46  0.891  0.612  0.491-  47 1.42  57 1.42  45 1.42
  47  0.002  0.668  0.490-  46 1.42  38 1.42  48 1.42
  48  0.057  0.779  0.490-  47 1.42  61 1.42  59 1.42
  49  0.167  0.667  0.491-  40 1.42  38 1.42  50 1.42
  50  0.223  0.779  0.491-  61 1.42  49 1.42  63 1.42
  51  0.331  0.666  0.494-  42 1.42  40 1.42  52 1.42
  52  0.388  0.777  0.493-  51 1.42  65 1.42  63 1.43
  53  0.495  0.661  0.504-  42 1.41  54 1.42  71 2.01
  54  0.553  0.772  0.498-  53 1.42  67 1.44  65 1.45
  55  0.670  0.665  0.509-  56 1.41  44 1.41  71 2.00
  56  0.722  0.774  0.500-  55 1.41  67 1.44  69 1.44
  57  0.837  0.668  0.493-  44 1.41  58 1.42  46 1.42
  58  0.891  0.779  0.492-  57 1.42  69 1.42  59 1.42
  59  0.002  0.835  0.490-  60 1.42  58 1.42  48 1.42
  60  0.057  0.946  0.490-  59 1.42   1 1.42   3 1.43
  61  0.168  0.835  0.490-  62 1.42  48 1.42  50 1.42
  62  0.224  0.946  0.490-   5 1.42  61 1.42   3 1.43
  63  0.334  0.834  0.491-  64 1.42  50 1.42  52 1.43
  64  0.389  0.946  0.490-  63 1.42   7 1.42   5 1.43
  65  0.499  0.831  0.494-  52 1.42  66 1.43  54 1.45
  66  0.555  0.943  0.491-   9 1.42  65 1.43   7 1.43
  67  0.665  0.830  0.498-  68 1.42  56 1.44  54 1.44
  68  0.721  0.941  0.493-  67 1.42   9 1.43  11 1.44
  69  0.834  0.833  0.493-  70 1.42  58 1.42  56 1.44
  70  0.889  0.944  0.491-  69 1.42  11 1.43   1 1.43
  71  0.529  0.555  0.552-  32 1.96  72 1.97  55 2.00  53 2.01  30 2.03
  72  0.509  0.533  0.681-  73 1.16  71 1.97
  73  0.495  0.519  0.758-  72 1.16

IMPORTANT INFORMATION: All symmetrisations will be switched off!
NOSYMM: (Re-)initialisation of all symmetry stuff for point group C_1.

 KPOINTS: K-Points

Automatic generation of k-mesh.
Space group operators:
 irot       det(A)        alpha          n_x          n_y          n_z        tau_x        tau_y        tau_z
    1     1.000000     0.000001     1.000000     0.000000     0.000000     0.000000     0.000000     0.000000

 Subroutine IBZKPT returns following result:

 Found      5 irreducible k-points:

 Following reciprocal coordinates:
            Coordinates               Weight
  0.000000  0.000000  0.000000      1.000000
  0.333333 -0.000000  0.000000      2.000000
  0.000000  0.333333  0.000000      2.000000
  0.333333  0.333333  0.000000      2.000000
 -0.333333  0.333333  0.000000      2.000000

 Following cartesian coordinates:
            Coordinates               Weight
  0.000000  0.000000  0.000000      1.000000
  0.022421  0.013068  0.000000      2.000000
 -0.000041  0.026137  0.000000      2.000000
  0.022380  0.039205  0.000000      2.000000
 -0.022463  0.013068  0.000000      2.000000

 TETIRR: Found     24 inequivalent tetrahedra from       54

 SYSTEM =  unknown system
 POSCAR =  POSCAR-clean

 Startparameter for this run:
   NWRITE =      2    write-flag & timer
   PREC   = normal    normal or accurate (medium, high low for compatibility)
   ISTART =      0    job   : 0-new  1-cont  2-samecut
   ICHARG =      2    charge: 1-file 2-atom 10-const
   ISPIN  =      2    spin polarized calculation?
   LNONCOLLINEAR =      F non collinear calculations
   LSORBIT =      F    spin-orbit coupling
   INIWAV =      1    electr: 0-lowe 1-rand  2-diag
   LASPH  =      F    aspherical Exc in radial PAW
   METAGGA=      F    non-selfconsistent MetaGGA calc.

 Electronic Relaxation 1
   ENCUT  =  440.0 eV  32.34 Ry    5.69 a.u.  25.40 25.22 25.66*2*pi/ulx,y,z
   ENINI  =  440.0     initial cutoff
   ENAUG  =  644.9 eV  augmentation charge cutoff
   NELM   =    200;   NELMIN=  2; NELMDL= -5     # of ELM steps
   EDIFF  = 0.1E-03   stopping-criterion for ELM
   LREAL  =      F    real-space projection
   NLSPLINE    = F    spline interpolate recip. space projectors
   LCOMPAT=      F    compatible to vasp.4.4
   GGA_COMPAT  = T    GGA compatible to vasp.4.4-vasp.4.6
   LMAXPAW     = -100 max onsite density
   LMAXMIX     =    2 max onsite mixed and CHGCAR
   VOSKOWN=      0    Vosko Wilk Nusair interpolation
   ROPT   =    0.00000   0.00000   0.00000   0.00000
   ROPT   =    0.00000   0.00000
 Ionic relaxation
   EDIFFG = -.1E-01   stopping-criterion for IOM
   NSW    =      0    number of steps for IOM
   NBLOCK =      1;   KBLOCK =      1    inner block; outer block
   IBRION =     -1    ionic relax: 0-MD 1-quasi-New 2-CG
   NFREE  =      0    steps in history (QN), initial steepest desc. (CG)
   ISIF   =      2    stress and relaxation
   IWAVPR =     10    prediction:  0-non 1-charg 2-wave 3-comb
   ISYM   =      0    0-nonsym 1-usesym 2-fastsym
   LCORR  =      T    Harris-Foulkes like correction to forces

   POTIM  = 0.5000    time-step for ionic-motion
   TEIN   =    0.0    initial temperature
   TEBEG  =    0.0;   TEEND  =   0.0 temperature during run
   SMASS  =  -3.00    Nose mass-parameter (am)
   estimated Nose-frequenzy (Omega)   =  0.10E-29 period in steps =****** mass=  -0.504E-26a.u.
   SCALEE = 1.0000    scale energy and forces
   NPACO  =    256;   APACO  = 16.0  distance and # of slots for P.C.
   PSTRESS=    0.0 pullay stress

  Mass of Ions in am
   POMASS =  12.01 14.00 12.01 52.00 12.01 16.00
  Ionic Valenz
   ZVAL   =   4.00  5.00  4.00 12.00  4.00  6.00
  Atomic Wigner-Seitz radii
  virtual crystal weights
   VCA    =   1.00  1.00  1.00  1.00  1.00  1.00
   NELECT =     303.0000    total number of electrons
   NUPDOWN=      -1.0000    fix difference up-down

 DOS related values:
   EMIN   = -14.00;   EMAX   =  6.00  energy-range for DOS
   EFERMI =   0.00
   ISMEAR =    -5;   SIGMA  =   0.20  broadening in eV -4-tet -1-fermi 0-gaus

 Electronic relaxation 2 (details)
   IALGO  =     58    algorithm
   LDIAG  =      T    sub-space diagonalisation (order eigenvalues)
   LSUBROT=      F    optimize rotation matrix (better conditioning)
   TURBO    =      0    0=normal 1=particle mesh
   IRESTART =      0    0=no restart 2=restart with 2 vectors
   NREBOOT  =      0    no. of reboots
   NMIN     =      0    reboot dimension
   EREF     =   0.00    reference energy to select bands
   IMIX   =      4    mixing-type and parameters
     AMIX     =   0.20;   BMIX     =  0.00
     AMIX_MAG =   0.80;   BMIX_MAG =  0.00
     AMIN     =   0.10
     WC   =   100.;   INIMIX=   1;  MIXPRE=   1;  MAXMIX= -45

 Intra band minimization:
   WEIMIN = 0.0000     energy-eigenvalue tresh-hold
   EBREAK =  0.13E-06  absolut break condition
   DEPER  =   0.30     relativ break condition

   TIME   =   0.40     timestep for ELM

  volume/ion in A,a.u.               =      38.92       262.67
  Fermi-wavevector in a.u.,A,eV,Ry     =   0.776326  1.467044  8.199996  0.602683
  Thomas-Fermi vector in A             =   1.878781

 Write flags
   LWAVE        =      F    write WAVECAR
   LDOWNSAMPLE  =      F    k-point downsampling of WAVECAR
   LCHARG       =      F    write CHGCAR
   LVTOT        =      F    write LOCPOT, total local potential
   LVHAR        =      F    write LOCPOT, Hartree potential only
   LELF         =      F    write electronic localiz. function (ELF)
   LORBIT       =     11    0 simple, 1 ext, 2 COOP (PROOUT), +10 PAW based schemes

 Dipole corrections
   LMONO  =      F    monopole corrections only (constant potential shift)
   LDIPOL =      F    correct potential (dipole corrections)
[...]
   -.201E+00 0.321E+01 0.150E+02   0.257E+00 -.323E+01 -.150E+02   -.539E-01 0.269E-01 0.460E-01
   -.424E+00 -.521E+01 0.142E+02   0.463E+00 0.503E+01 -.142E+02   -.593E-01 0.122E+00 0.940E-02
   0.640E+00 -.200E+01 0.134E+02   -.710E+00 0.190E+01 -.134E+02   0.183E-01 0.162E+00 0.335E-01
   0.275E+01 -.390E+01 0.133E+02   -.286E+01 0.363E+01 -.133E+02   0.122E+00 0.187E+00 -.442E-01
   0.195E+01 -.173E+01 0.127E+02   -.206E+01 0.156E+01 -.127E+02   0.183E+00 0.240E+00 0.119E-01
   0.885E+01 0.829E+01 0.144E+02   -.914E+01 -.851E+01 -.144E+02   0.240E+00 0.177E+00 0.386E-03
   0.115E+02 0.494E+01 0.145E+02   -.120E+02 -.519E+01 -.145E+02   0.461E+00 0.305E+00 0.123E-01
   0.108E+02 0.217E+02 0.189E+02   -.110E+02 -.229E+02 -.189E+02   0.178E+00 0.114E+01 0.420E-01
   0.283E+02 0.302E+02 0.256E+02   -.327E+02 -.329E+02 -.259E+02   0.453E+01 0.280E+01 0.328E+00
   -.858E+01 0.240E+02 0.137E+02   0.890E+01 -.248E+02 -.138E+02   -.317E+00 0.737E+00 0.564E-01
   -.251E+02 0.370E+02 0.167E+02   0.304E+02 -.390E+02 -.166E+02   -.527E+01 0.203E+01 -.133E+00
   -.984E+01 0.129E+02 0.155E+02   0.100E+02 -.129E+02 -.155E+02   -.178E+00 -.890E-01 0.185E-01
   -.874E+01 0.149E+02 0.202E+02   0.863E+01 -.148E+02 -.203E+02   0.103E+00 -.443E-01 0.109E+00
   -.521E+01 0.529E+01 0.140E+02   0.526E+01 -.536E+01 -.140E+02   -.215E-01 0.229E-01 0.471E-02
   -.700E+01 0.524E+01 0.141E+02   0.698E+01 -.524E+01 -.142E+02   0.599E-01 0.576E-01 0.172E-01
   0.189E+01 0.163E+01 0.114E+02   -.196E+01 -.169E+01 -.113E+02   0.586E-01 0.589E-01 -.257E-01
   0.175E+01 0.289E+01 0.112E+02   -.184E+01 -.292E+01 -.112E+02   0.113E+00 0.539E-01 0.355E-01
   0.727E+01 0.560E+01 0.116E+02   -.741E+01 -.563E+01 -.116E+02   0.197E+00 -.242E-01 -.235E-01
   0.942E+01 0.400E+01 0.127E+02   -.950E+01 -.396E+01 -.127E+02   0.104E+00 0.884E-03 -.662E-02
   0.249E+02 0.162E+02 0.207E+02   -.259E+02 -.158E+02 -.207E+02   0.104E+01 -.384E+00 -.911E-01
   0.323E+02 0.544E+01 0.291E+02   -.325E+02 -.478E+01 -.293E+02   0.105E+00 -.687E+00 0.209E+00
   0.739E+01 0.446E+02 0.296E+02   -.696E+01 -.431E+02 -.294E+02   -.502E+00 -.164E+01 -.119E+00
   0.868E+01 0.142E+02 0.314E+02   -.202E+00 -.332E+01 -.293E+02   -.858E+01 -.110E+02 -.214E+01
   -.201E+02 0.346E+02 0.301E+02   0.209E+02 -.331E+02 -.303E+02   -.829E+00 -.165E+01 0.202E+00
   -.198E+02 0.451E+02 0.630E+02   0.139E+02 -.408E+02 -.614E+02   0.601E+01 -.418E+01 -.153E+01
   -.140E+02 0.156E+02 0.183E+02   0.139E+02 -.156E+02 -.183E+02   0.764E-01 -.464E-01 -.305E-01
   -.258E+02 0.109E+02 0.230E+02   0.256E+02 -.108E+02 -.231E+02   0.275E+00 -.208E+00 0.133E+00
   -.305E+01 0.576E+01 0.111E+02   0.292E+01 -.581E+01 -.111E+02   0.656E-01 0.151E-02 -.369E-01
   -.654E+01 0.461E+01 0.123E+02   0.646E+01 -.459E+01 -.124E+02   0.978E-01 0.192E-01 0.309E-01
   0.192E+01 0.262E+00 0.113E+02   -.202E+01 -.237E+00 -.113E+02   0.976E-01 -.413E-01 0.539E-02
   0.250E+00 -.121E+01 0.116E+02   -.278E+00 0.122E+01 -.116E+02   0.433E-01 -.309E-01 0.249E-01
   0.176E+02 -.674E+00 0.180E+02   -.179E+02 0.837E+00 -.180E+02   0.259E+00 -.215E+00 0.911E-02
   0.146E+02 -.553E+01 0.143E+02   -.145E+02 0.571E+01 -.142E+02   -.904E-01 -.131E+00 -.923E-01
   0.429E+02 -.104E+01 0.436E+02   -.424E+02 0.132E+01 -.440E+02   -.407E+00 -.341E+00 0.436E+00
   0.404E+02 -.201E+02 0.399E+02   -.393E+02 0.208E+02 -.405E+02   -.108E+01 -.754E+00 0.553E+00
   -.431E+02 0.113E+02 0.430E+02   0.424E+02 -.112E+02 -.437E+02   0.635E+00 -.198E-01 0.700E+00
   -.410E+02 -.160E+02 0.331E+02   0.399E+02 0.168E+02 -.332E+02   0.975E+00 -.685E+00 0.132E+00
   -.135E+02 0.241E+01 0.163E+02   0.133E+02 -.240E+01 -.162E+02   0.939E-01 -.697E-01 -.782E-01
   -.143E+02 -.230E+01 0.182E+02   0.142E+02 0.240E+01 -.182E+02   0.178E+00 -.318E-01 0.431E-01
   -.611E+01 -.472E+01 0.136E+02   0.598E+01 0.470E+01 -.136E+02   0.996E-01 -.129E-01 0.131E-01
   -.413E+01 -.389E+01 0.119E+02   0.405E+01 0.390E+01 -.119E+02   0.517E-01 0.140E-01 -.301E-01
   0.711E+01 -.600E+01 0.115E+02   -.711E+01 0.607E+01 -.115E+02   0.210E-01 -.828E-01 0.173E-01
   0.357E+01 -.457E+01 0.101E+02   -.348E+01 0.465E+01 -.101E+02   -.746E-01 -.484E-01 -.411E-01
   0.220E+02 -.148E+02 0.184E+02   -.217E+02 0.148E+02 -.185E+02   -.354E+00 0.142E-01 0.104E+00
   0.116E+02 -.158E+02 0.152E+02   -.114E+02 0.159E+02 -.152E+02   -.263E+00 -.874E-01 -.419E-01
   0.327E+01 -.531E+02 0.562E+02   0.312E+01 0.495E+02 -.552E+02   -.648E+01 0.356E+01 -.102E+01
   0.501E+01 -.325E+02 0.227E+02   -.469E+01 0.315E+02 -.229E+02   -.305E+00 0.101E+01 0.147E+00
   -.701E+01 -.533E+02 0.194E+02   -.289E-01 0.492E+02 -.180E+02   0.713E+01 0.407E+01 -.142E+01
   -.431E+01 -.342E+02 0.143E+02   0.417E+01 0.329E+02 -.142E+02   0.190E+00 0.128E+01 -.492E-01
   -.224E+02 -.115E+02 0.236E+02   0.220E+02 0.114E+02 -.238E+02   0.452E+00 0.163E+00 0.189E+00
   -.111E+02 -.140E+02 0.171E+02   0.108E+02 0.139E+02 -.169E+02   0.309E+00 0.383E-01 -.127E+00
   -.631E+01 -.405E+01 0.143E+02   0.616E+01 0.390E+01 -.143E+02   0.172E+00 0.137E+00 0.212E-01
   -.311E+01 -.178E+01 0.142E+02   0.309E+01 0.166E+01 -.142E+02   0.775E-01 0.152E+00 -.553E-02
   -.655E+00 -.187E+01 0.110E+02   0.674E+00 0.183E+01 -.111E+02   -.123E-01 0.440E-01 0.363E-01
   -.942E+00 0.250E+01 0.111E+02   0.104E+01 -.260E+01 -.111E+02   -.934E-01 0.803E-01 -.274E-01
   0.415E+01 -.585E+01 0.128E+02   -.407E+01 0.585E+01 -.128E+02   -.131E+00 -.148E-02 0.248E-01
   0.307E+01 -.331E+01 0.133E+02   -.304E+01 0.331E+01 -.133E+02   -.732E-01 0.400E-01 0.828E-02
   0.277E+01 -.165E+02 0.176E+02   -.223E+01 0.162E+02 -.176E+02   -.537E+00 0.247E+00 0.575E-01
   0.435E+01 -.863E+01 0.150E+02   -.426E+01 0.847E+01 -.150E+02   -.691E-01 0.204E+00 0.783E-02
   0.208E+01 -.211E+02 0.107E+02   -.194E+01 0.203E+02 -.103E+02   -.158E+00 0.834E+00 -.399E+00
   0.952E+00 -.133E+02 0.138E+02   -.986E+00 0.128E+02 -.139E+02   0.524E-01 0.492E+00 0.433E-01
   -.321E+01 -.146E+02 0.195E+02   0.262E+01 0.142E+02 -.196E+02   0.562E+00 0.404E+00 0.128E+00
   -.261E+01 -.963E+01 0.176E+02   0.248E+01 0.936E+01 -.176E+02   0.131E+00 0.320E+00 0.534E-01
   -.167E+02 -.591E+02 -.371E+03   0.165E+02 0.592E+02 0.363E+03   0.201E+00 -.765E-01 0.731E+01
   -.114E+02 -.172E+02 -.246E+03   0.132E+02 0.203E+02 0.226E+03   -.180E+01 -.313E+01 0.198E+02
   0.222E+02 0.388E+02 -.656E+03   -.273E+02 -.476E+02 0.714E+03   0.508E+01 0.877E+01 -.582E+02
   -.287E+01 -.622E+01 0.344E+02   0.853E-13 -.405E-12 -.682E-12   0.288E+01 0.623E+01 -.344E+02

 POSITION                                       TOTAL-FORCE (eV/Angst)
      0.00714      0.00501      7.33981        -0.025132     -0.004714      0.006822
      0.00192      1.42652      7.34001         0.013719      0.002745      0.009572
      2.48399      0.03056      7.34924        -0.042480     -0.048537     -0.002994
      2.47900      1.44626      7.37033        -0.004599      0.045197      0.000908
      4.94928      0.03745      7.35136         0.042503     -0.045688      0.005251
      4.94446      1.46225      7.37154         0.013226      0.048219      0.006336
      0.00254     12.75099      7.34983        -0.005785      0.002590      0.014870
      7.42329      1.43409      7.34823         0.007528      0.003855      0.015435
      2.47763     12.73062      7.36316        -0.023706     -0.059341      0.011213
      9.90175      1.40932      7.34467        -0.050630      0.060053     -0.001585
      4.95088     12.73694      7.36341         0.009859     -0.075639      0.002759
     12.37201      1.41298      7.34527         0.066583      0.067628     -0.012615
     13.60965      2.13313      7.34232        -0.045402     -0.036054      0.002446
     -1.24520      3.52276      7.35344        -0.051277      0.048075     -0.013907
      1.24245      2.14847      7.36203         0.013574     -0.053402      0.009306
      1.23493      3.56207      7.39759         0.023083      0.074790      0.002535
      3.70166      2.18523      7.40045        -0.007868     -0.037209      0.014828
      3.69146      3.60477      7.46755         0.041408      0.018664      0.004328
      6.18327      2.16093      7.36946        -0.031625     -0.054511      0.011029
      6.17296      3.58184      7.40073        -0.005406      0.062078     -0.001252
      8.66405      2.12866      7.34485         0.030315     -0.052202      0.005930
      8.66307      3.54773      7.35447         0.040212      0.055624     -0.005593
     11.13693      2.12221      7.34348        -0.011884     -0.007677      0.001407
     11.13617      3.54340      7.34462         0.021040      0.018921      0.001723
     12.37039      4.25604      7.35052         0.047209     -0.051193     -0.012496
     -2.48858      5.65360      7.35608         0.017189      0.037402     -0.016230
     -0.01058      4.24081      7.37982         0.026778      0.011043      0.007317
     -0.04081      5.65551      7.39320        -0.038031     -0.018789      0.006607
      2.44894      4.30081      7.49296        -0.069989     -0.045111     -0.004674
      2.42106      5.68425      7.62063        -0.081238     -0.006904     -0.012596
      4.92697      4.33207      7.47070        -0.038131     -0.068794     -0.013279
      4.98843      5.74539      7.55995         0.041886      0.048357      0.031826
      7.42842      4.26369      7.38268        -0.013497      0.001698      0.009374
      7.45812      5.68298      7.40092         0.051606     -0.042618      0.015656
      9.90299      4.25640      7.35124        -0.059005     -0.046501     -0.019006
      9.91144      5.67790      7.35585         0.005966      0.036927     -0.011666
     11.13994      6.39193      7.35328        -0.009507     -0.019083     -0.004408
     -3.70702      7.79081      7.35317         0.014613     -0.015062     -0.009539
     -1.26610      6.36804      7.37268        -0.017885     -0.054221     -0.002254
     -1.25761      7.78790      7.38309        -0.017288      0.049172      0.001309
      1.17937      6.34129      7.47491         0.079344     -0.070491      0.008957
      1.19545      7.77994      7.47546         0.055746      0.051684     -0.011571
      6.24440      6.39425      7.46750        -0.083542      0.002881     -0.006039
      6.25448      7.82655      7.49223        -0.046133      0.068999     -0.000528
      8.69037      6.39403      7.37282        -0.007497     -0.064658      0.003853
      8.69728      7.81402      7.36851         0.040216      0.068176      0.001111
     -4.93183      8.50553      7.35233        -0.034263     -0.031353     -0.006159
     -4.93529      9.92779      7.34933        -0.027893      0.025058     -0.008383
     -2.47941      8.50420      7.36179         0.014915     -0.018956     -0.013125
     -2.47238      9.92760      7.35755         0.022122      0.024919     -0.018773
     -0.02511      8.49462      7.41591        -0.004210      0.025294      0.007198
     -0.00404      9.91551      7.39336         0.009948     -0.008796      0.011713
      2.44376      8.43324      7.55882        -0.079051     -0.080858     -0.008455
      2.48387      9.85315      7.47580         0.026330      0.047286      0.002143
      5.01581      8.48350      7.63856         0.076254     -0.023491      0.024256
      4.97333      9.88532      7.50235         0.028482      0.041220      0.004176
      7.47282      8.52819      7.40118         0.006238      0.035132     -0.011404
      7.45210      9.94532      7.38358         0.023820     -0.012471      0.007706
     -6.17098     10.63600      7.35276         0.018982     -0.013865     -0.006585
     -6.17800     12.05351      7.34318         0.056671      0.032167     -0.000977
     -3.70389     10.64108      7.34764         0.006590      0.006678     -0.000496
     -3.70623     12.06343      7.34829         0.004953     -0.021742      0.007182
     -1.23720     10.63550      7.36212        -0.056241     -0.002470     -0.003439
     -1.23925     12.05679      7.35016        -0.042113      0.031379      0.010346
      1.24525     10.59804      7.40523        -0.002518     -0.042802      0.008846
      1.24000     12.02476      7.36781         0.032492      0.045265      0.006051
      3.72172     10.58891      7.46905        -0.014975     -0.011315      0.013298
      3.71515     12.00791      7.39165         0.017461      0.028344      0.020358
      6.20424     10.62717      7.40094        -0.032702     -0.045899      0.006427
      6.19731     12.04593      7.35913        -0.013838      0.044688      0.014115
      3.73711      7.07835      8.27874         0.035228      0.022719     -0.193974
      3.59901      6.80519     10.22102         0.026501      0.008286      0.134710
      3.49723      6.63068     11.36565        -0.015249     -0.010796     -0.057234
    total drift:                                0.003499      0.007981      0.035053

  FREE ENERGIE OF THE ION-ELECTRON SYSTEM (eV)
  free  energy   TOTEN  =      -669.82868915 eV

  energy  without entropy=     -669.82868915  energy(sigma->0) =     -669.82868915

 stress matrix after NEB project (eV)
     -1.93492      2.65222      0.03149
      2.65222     -1.03759     -0.01983
      0.03149     -0.01983     -3.60341
  FORCES: max atom, RMS     0.198452    0.063593
  FORCE total and by dimension    0.543342    0.193974
  Stress total and by dimension    5.645920    3.603412

 total charge

[...]

 magnetization (x)

# of ion       s       p       d       tot
    1        0.000   0.004   0.000   0.004
    2       -0.000  -0.001   0.000  -0.002
    3        0.000   0.002   0.000   0.002
    4        0.000   0.002   0.000   0.002
    5        0.000   0.002   0.000   0.002
    6       -0.000  -0.000   0.000  -0.000
    7        0.000   0.003   0.000   0.004
    8       -0.000  -0.001   0.000  -0.001
    9        0.000   0.006   0.000   0.006
   10       -0.000  -0.002   0.000  -0.002
   11        0.000   0.007   0.000   0.007
   12       -0.000  -0.002   0.000  -0.002
   13        0.000   0.003   0.000   0.004
   14       -0.000  -0.003   0.000  -0.003
   15        0.000   0.005   0.000   0.005
   16       -0.000  -0.002   0.000  -0.002
   17        0.000   0.006   0.000   0.006
   18        0.000   0.005   0.000   0.005
   19        0.000   0.003   0.000   0.003
   20       -0.001  -0.005   0.000  -0.005
   21        0.000   0.003   0.000   0.004
   22       -0.000  -0.001   0.000  -0.002
   23        0.001   0.010   0.000   0.011
   24       -0.000  -0.004   0.000  -0.004
   25        0.001   0.013   0.000   0.014
   26       -0.000  -0.001   0.000  -0.001
   27        0.001   0.013   0.000   0.014
   28       -0.000  -0.006   0.000  -0.006
   29        0.001   0.013   0.000   0.014
   30       -0.008  -0.021   0.000  -0.028
   31        0.001   0.006   0.000   0.007
   32       -0.011  -0.041   0.000  -0.052
   33        0.001   0.011   0.000   0.011
   34       -0.001  -0.006   0.000  -0.007
   35        0.001   0.011   0.000   0.012
   36       -0.000  -0.001   0.000  -0.002
   37        0.000   0.002   0.000   0.002
   38       -0.000  -0.002   0.000  -0.002
   39        0.001   0.008   0.000   0.009
   40        0.000   0.001   0.000   0.001
   41        0.004   0.033   0.000   0.037
   42        0.003   0.018   0.000   0.021
   43        0.003   0.028   0.000   0.031
   44        0.002   0.028   0.000   0.031
   45        0.000   0.007   0.000   0.008
   46        0.000   0.006   0.000   0.006
   47        0.000   0.002   0.000   0.002
   48        0.000   0.009   0.000   0.009
   49        0.000   0.003   0.000   0.003
   50        0.000   0.006   0.000   0.006
   51       -0.000  -0.001   0.000  -0.001
   52        0.000   0.006   0.000   0.006
   53       -0.008  -0.023   0.000  -0.032
   54       -0.000   0.000   0.000   0.000
   55       -0.003   0.012   0.000   0.009
   56        0.001   0.005   0.000   0.006
   57       -0.000  -0.001   0.000  -0.001
   58        0.000   0.008   0.000   0.009
   59       -0.000   0.002   0.000   0.002
   60       -0.000  -0.000   0.000  -0.000
   61       -0.000   0.001   0.000   0.001
   62        0.000   0.005   0.000   0.005
   63        0.000   0.002   0.000   0.002
   64       -0.000   0.000   0.000   0.000
   65       -0.000   0.000   0.000  -0.000
   66       -0.000  -0.000   0.000  -0.001
   67        0.001   0.013   0.000   0.014
   68       -0.000  -0.000   0.000  -0.001
   69        0.000   0.002   0.000   0.002
   70       -0.000  -0.001   0.000  -0.001
   71        0.020   0.060   1.875   1.955
   72       -0.003   0.066   0.000   0.063
   73        0.002   0.094   0.000   0.096
tot          0.008   0.434   1.875   2.316

 BZINTS: Fermi energy: -2.222016;303.000000 electrons
         Band energy:***********;  BLOECHL correction:  0.000000