 vasp.5.4.4.18Apr17-6-g9f103f2a35 (build Nov  8 2022 18:58:45) complex
 executed on             LinuxGNU date 2023.04.13  07:12:11

 INCAR:
 POTCAR:    PAW_PBE C 08Apr2002
 POTCAR:    PAW_PBE N 08Apr2002
 POTCAR:    PAW_PBE Ge_d 03Jul2007
 POTCAR:    PAW_PBE C 08Apr2002
 POTCAR:    PAW_PBE O 08Apr2002
 POTCAR:    PAW_PBE C 08Apr2002
   VRHFIN =C: s2p2

   TITEL  = PAW_PBE C 08Apr2002
   POMASS =   12.011; ZVAL   =    4.000    mass and valenz
   ENMAX  =  400.000; ENMIN  =  300.000 eV

[...]

   TITEL  = PAW_PBE Ge_d 03Jul2007
   POMASS =   72.610; ZVAL   =   14.000    mass and valenz
   ENMAX  =  310.294; ENMIN  =  232.720 eV

[...]

   TITEL  = PAW_PBE O 08Apr2002
   POMASS =   16.000; ZVAL   =    6.000    mass and valenz
   ENMAX  =  400.000; ENMIN  =  300.000 eV

 Optimization of the real space projectors (new method)

 maximal supplied QI-value         = 25.13
 optimisation between [QCUT,QGAM] = [ 10.56, 21.36] = [ 31.20,127.80] Ry
 Optimized for a Real-space Cutoff    1.24 Angstroem

   l    n(q)    QCUT    max X(q) W(low)/X(q) W(high)/X(q)  e(spline)
   0      8    10.556   115.676    0.42E-03    0.71E-03    0.20E-06
   0      8    10.556    87.132    0.41E-03    0.71E-03    0.20E-06
   1      7    10.556     4.429    0.22E-03    0.39E-03    0.12E-06
   1      7    10.556     2.733    0.16E-03    0.27E-03    0.14E-06
 Optimization of the real space projectors (new method)

[...]

   l    n(q)    QCUT    max X(q) W(low)/X(q) W(high)/X(q)  e(spline)
   0      8    10.556   115.676    0.42E-03    0.71E-03    0.20E-06
   0      8    10.556    87.132    0.41E-03    0.71E-03    0.20E-06
   1      7    10.556     4.429    0.22E-03    0.39E-03    0.12E-06
   1      7    10.556     2.733    0.16E-03    0.27E-03    0.14E-06
 Optimization of the real space projectors (new method)

 maximal supplied QI-value         = 24.76
 optimisation between [QCUT,QGAM] = [ 10.64, 21.29] = [ 31.73,126.92] Ry
 Optimized for a Real-space Cutoff    1.24 Angstroem

   l    n(q)    QCUT    max X(q) W(low)/X(q) W(high)/X(q)  e(spline)
   0      8    10.645    20.381    0.39E-03    0.65E-03    0.15E-06
   0      8    10.645    15.268    0.42E-03    0.70E-03    0.17E-06
   1      7    10.645     5.964    0.38E-03    0.66E-03    0.17E-06
   1      7    10.645     5.382    0.31E-03    0.55E-03    0.16E-06
  PAW_PBE C 08Apr2002                   :
  PAW_PBE N 08Apr2002                   :
  PAW_PBE Ge_d 03Jul2007                :
  PAW_PBE C 08Apr2002                   :
  PAW_PBE O 08Apr2002                   :

 POSCAR: POSCAR-c3n4
  positions in direct lattice
  velocities in cartesian coordinates
 exchange correlation table for  LEXCH =        8
   RHO(1)=    0.500       N(1)  =     2000
   RHO(2)=  100.500       N(2)  =     4000

 ion  position               nearest neighbor table
   1  0.091  0.189  0.343-  26 1.33  46 1.37  25 1.40
   2  0.287  0.415  0.350-  29 1.31  35 1.35  25 1.44
   3  0.069  0.372  0.330-  44 1.31  39 1.34  25 1.41
   4  0.478  0.002  0.494-  27 1.33  30 1.33  48 1.41
   5  0.463  0.412  0.394-  28 1.31  29 1.33  56 1.39
   6  0.121  0.047  0.433-  26 1.32  31 1.32  32 1.40
   7  0.067  0.690  0.499-  54 1.34  34 1.34  33 1.37
   8  0.285  0.846  0.561-  37 1.32  27 1.34  33 1.40
   9  0.133  0.910  0.546-  31 1.31  52 1.33  33 1.40
  10  0.418  0.572  0.471-  35 1.33  38 1.35  56 1.41
  11  0.454  0.908  0.665-  37 1.32  36 1.34  48 1.39
  12  0.047  0.504  0.438-  34 1.31  39 1.32  40 1.39
  13  0.658  0.205  0.471-  42 1.33  30 1.34  41 1.43
  14  0.749  0.396  0.338-  45 1.34  41 1.35  51 1.39
  15  0.618  0.385  0.465-  55 1.30  28 1.33  41 1.45
  16  0.915  0.038  0.438-  46 1.33  43 1.36  32 1.40
  17  0.922  0.413  0.283-  45 1.31  44 1.34  40 1.41
  18  0.665  0.099  0.613-  47 1.31  42 1.34  48 1.42
  19  0.560  0.700  0.612-  50 1.39  38 1.47  49 1.48  57 2.06
  20  0.782  0.918  0.571-  53 1.32  43 1.34  49 1.44
  21  0.636  0.921  0.686-  49 1.31  47 1.37  36 1.38
  22  0.910  0.586  0.379-  51 1.32  54 1.34  40 1.41
  23  0.983  0.957  0.584-  53 1.32  52 1.33  32 1.39
  24  0.588  0.533  0.550-  50 1.29  55 1.37  56 1.46
  25  0.154  0.324  0.314-   1 1.40   3 1.41   2 1.44
  26  0.164  0.136  0.357-   6 1.32   1 1.33
  27  0.355  0.903  0.475-   4 1.33   8 1.34
  28  0.528  0.351  0.390-   5 1.31  15 1.33
  29  0.367  0.375  0.324-   2 1.31   5 1.33
  30  0.551  0.102  0.429-   4 1.33  13 1.34
  31  0.180  0.983  0.461-   9 1.31   6 1.32
  32  0.006  0.015  0.486-  23 1.39  16 1.40   6 1.40
  33  0.151  0.801  0.556-   7 1.37   9 1.40   8 1.40
  34  0.093  0.592  0.513-  12 1.31   7 1.34
  35  0.314  0.523  0.408-  10 1.33   2 1.35
  36  0.512  0.863  0.729-  11 1.34  21 1.38  57 2.23
  37  0.324  0.842  0.656-  11 1.32   8 1.32
  38  0.456  0.674  0.538-  10 1.35  19 1.47  57 2.16
  39  0.071  0.406  0.429-  12 1.32   3 1.34
  40  0.974  0.516  0.358-  12 1.39  22 1.41  17 1.41
  41  0.699  0.334  0.430-  14 1.35  13 1.43  15 1.45
  42  0.723  0.211  0.557-  13 1.33  18 1.34
  43  0.790  0.968  0.476-  20 1.34  16 1.36
  44  0.004  0.376  0.248-   3 1.31  17 1.34
  45  0.794  0.346  0.267-  17 1.31  14 1.34
  46  0.960  0.128  0.363-  16 1.33   1 1.37
  47  0.719  0.057  0.680-  18 1.31  21 1.37
  48  0.529  0.009  0.594-  11 1.39   4 1.41  18 1.42
  49  0.656  0.846  0.622-  21 1.31  20 1.44  19 1.48
  50  0.623  0.629  0.616-  24 1.29  19 1.39
  51  0.789  0.531  0.342-  22 1.32  14 1.39
  52  0.059  0.915  0.621-  23 1.33   9 1.33
  53  0.873  0.925  0.634-  20 1.32  23 1.32
  54  0.974  0.693  0.442-  22 1.34   7 1.34
  55  0.647  0.460  0.547-  15 1.30  24 1.37
  56  0.488  0.504  0.472-   5 1.39  10 1.41  24 1.46
  57  0.392  0.644  0.697-  19 2.06  38 2.16  36 2.23
  58  0.376  0.571  0.939-  59 1.14
  59  0.315  0.532  0.014-  58 1.14

IMPORTANT INFORMATION: All symmetrisations will be switched off!
NOSYMM: (Re-)initialisation of all symmetry stuff for point group C_1.

 KPOINTS: K-Points

Automatic generation of k-mesh.
Space group operators:
 irot       det(A)        alpha          n_x          n_y          n_z        tau_x        tau_y        tau_z
    1     1.000000     0.000000     1.000000     0.000000     0.000000     0.000000     0.000000     0.000000

 Subroutine IBZKPT returns following result:

 Found      4 irreducible k-points:

 Following reciprocal coordinates:
            Coordinates               Weight
  0.000000  0.000000  0.000000      1.000000
  0.500000  0.000000  0.000000      1.000000
  0.000000  0.500000  0.000000      1.000000
  0.500000  0.500000  0.000000      1.000000

 Following cartesian coordinates:
            Coordinates               Weight
  0.000000  0.000000  0.000000      1.000000
  0.036415  0.021552  0.000000      1.000000
  0.000594  0.043104  0.000000      1.000000
  0.037009  0.064656  0.000000      1.000000

 SYSTEM =  unknown system
 POSCAR =  POSCAR-c3n4

 Startparameter for this run:
   NWRITE =      2    write-flag & timer
   PREC   = normal    normal or accurate (medium, high low for compatibility)
   ISTART =      0    job   : 0-new  1-cont  2-samecut
   ICHARG =      2    charge: 1-file 2-atom 10-const
   ISPIN  =      2    spin polarized calculation?
   LNONCOLLINEAR =      F non collinear calculations
   LSORBIT =      F    spin-orbit coupling
   INIWAV =      1    electr: 0-lowe 1-rand  2-diag
   LASPH  =      F    aspherical Exc in radial PAW
   METAGGA=      F    non-selfconsistent MetaGGA calc.

 Electronic Relaxation 1
   ENCUT  =  440.0 eV  32.34 Ry    5.69 a.u.  20.36 19.99 22.06*2*pi/ulx,y,z
   ENINI  =  440.0     initial cutoff
   ENAUG  =  644.9 eV  augmentation charge cutoff
   NELM   =     50;   NELMIN=  2; NELMDL= -5     # of ELM steps
   EDIFF  = 0.1E-03   stopping-criterion for ELM
   LREAL  =      T    real-space projection
   NLSPLINE    = F    spline interpolate recip. space projectors
   LCOMPAT=      F    compatible to vasp.4.4
   GGA_COMPAT  = T    GGA compatible to vasp.4.4-vasp.4.6
   LMAXPAW     = -100 max onsite density
   LMAXMIX     =    2 max onsite mixed and CHGCAR
   VOSKOWN=      0    Vosko Wilk Nusair interpolation
   ROPT   =   -0.00050  -0.00050  -0.00050  -0.00050
   ROPT   =   -0.00050
 Ionic relaxation
   EDIFFG = -.1E+00   stopping-criterion for IOM
   NSW    =    400    number of steps for IOM
   NBLOCK =      1;   KBLOCK =    400    inner block; outer block
   IBRION =      2    ionic relax: 0-MD 1-quasi-New 2-CG
   NFREE  =      1    steps in history (QN), initial steepest desc. (CG)
   ISIF   =      2    stress and relaxation
   IWAVPR =     11    prediction:  0-non 1-charg 2-wave 3-comb
   ISYM   =      0    0-nonsym 1-usesym 2-fastsym
   LCORR  =      T    Harris-Foulkes like correction to forces

   POTIM  = 0.2000    time-step for ionic-motion
   TEIN   =    0.0    initial temperature
   TEBEG  =    0.0;   TEEND  =   0.0 temperature during run
   SMASS  =  -3.00    Nose mass-parameter (am)
   estimated Nose-frequenzy (Omega)   =  0.10E-29 period in steps =****** mass=  -0.324E-26a.u.
   SCALEE = 1.0000    scale energy and forces
   NPACO  =    256;   APACO  = 16.0  distance and # of slots for P.C.
   PSTRESS=    0.0 pullay stress

  Mass of Ions in am
   POMASS =  12.01 14.00 72.61 12.01 16.00
  Ionic Valenz
   ZVAL   =   4.00  5.00 14.00  4.00  6.00
  Atomic Wigner-Seitz radii
  virtual crystal weights
   VCA    =   1.00  1.00  1.00  1.00  1.00
   NELECT =     280.0000    total number of electrons
   NUPDOWN=      -1.0000    fix difference up-down

 DOS related values:
   EMIN   =  10.00;   EMAX   =-10.00  energy-range for DOS
   EFERMI =   0.00
   ISMEAR =     0;   SIGMA  =   0.10  broadening in eV -4-tet -1-fermi 0-gaus

 Electronic relaxation 2 (details)
   IALGO  =     58    algorithm
   LDIAG  =      T    sub-space diagonalisation (order eigenvalues)
   LSUBROT=      F    optimize rotation matrix (better conditioning)
   TURBO    =      0    0=normal 1=particle mesh
   IRESTART =      0    0=no restart 2=restart with 2 vectors
   NREBOOT  =      0    no. of reboots
   NMIN     =      0    reboot dimension
   EREF     =   0.00    reference energy to select bands
   IMIX   =      4    mixing-type and parameters
     AMIX     =   0.05;   BMIX     =  0.00
     AMIX_MAG =   0.20;   BMIX_MAG =  0.00
     AMIN     =   0.05
     WC   =   100.;   INIMIX=   1;  MIXPRE=   1;  MAXMIX= -45

 Intra band minimization:
   WEIMIN = 0.0010     energy-eigenvalue tresh-hold
   EBREAK =  0.15E-06  absolut break condition
   DEPER  =   0.30     relativ break condition

   TIME   =   0.40     timestep for ELM

  volume/ion in A,a.u.               =      25.97       175.24
  Fermi-wavevector in a.u.,A,eV,Ry     =   0.929038  1.755628 11.743358  0.863112
  Thomas-Fermi vector in A             =   2.055279

 Write flags
   LWAVE        =      F    write WAVECAR
   LDOWNSAMPLE  =      F    k-point downsampling of WAVECAR
   LCHARG       =      F    write CHGCAR
   LVTOT        =      F    write LOCPOT, total local potential
   LVHAR        =      F    write LOCPOT, Hartree potential only
   LELF         =      F    write electronic localiz. function (ELF)
   LORBIT       =      0    0 simple, 1 ext, 2 COOP (PROOUT), +10 PAW based schemes

 Dipole corrections
[...]

 E-fermi :  -1.9833     XC(G=0):  -4.6938     alpha+bet : -3.6529

[...]

 spin component 2

[...]

 k-point     4 :       0.5000    0.5000    0.0000
  band No.  band energies     occupation
      1     -26.8974      1.00000
      2     -26.8722      1.00000
      3     -26.7516      1.00000
      4     -26.7414      1.00000
      5     -26.6796      1.00000
      6     -26.4587      1.00000
      7     -25.8363      1.00000
      8     -25.4920      1.00000
      9     -25.2621      1.00000
     10     -24.8122      1.00000
     11     -24.4664      1.00000
     12     -24.2780      1.00000
     13     -23.9986      1.00000
     14     -23.8604      1.00000
     15     -23.3534      1.00000
     16     -23.1178      1.00000
     17     -22.9245      1.00000
     18     -22.6870      1.00000
     19     -22.2849      1.00000
     20     -22.1835      1.00000
     21     -21.9615      1.00000
     22     -21.8385      1.00000
     23     -21.3463      1.00000
     24     -21.2134      1.00000
     25     -21.0378      1.00000
     26     -21.0031      1.00000
     27     -20.8856      1.00000
     28     -20.7610      1.00000
     29     -20.7052      1.00000
     30     -20.4973      1.00000
     31     -20.1914      1.00000
     32     -20.0291      1.00000
     33     -19.9135      1.00000
     34     -19.8268      1.00000
     35     -19.6727      1.00000
     36     -19.6343      1.00000
     37     -19.3440      1.00000
     38     -19.1033      1.00000
     39     -16.5007      1.00000
     40     -16.3845      1.00000
     41     -16.1687      1.00000
     42     -16.0555      1.00000
     43     -16.0152      1.00000
     44     -15.8911      1.00000
     45     -15.5809      1.00000
     46     -15.4583      1.00000
     47     -14.7452      1.00000
     48     -14.4927      1.00000
     49     -14.3273      1.00000
     50     -14.2966      1.00000
     51     -13.6360      1.00000
     52     -13.4723      1.00000
     53     -13.3796      1.00000
     54     -13.1107      1.00000
     55     -13.0430      1.00000
     56     -12.9593      1.00000
     57     -12.8896      1.00000
     58     -12.7987      1.00000
     59     -12.6698      1.00000
     60     -12.5630      1.00000
[...]
    158       1.6905      0.00000
    159       1.9784      0.00000
    160       2.1004      0.00000
    161       2.1805      0.00000
    162       2.3519      0.00000
    163       2.3769      0.00000
    164       2.6158      0.00000
    165       2.8017      0.00000
    166       2.9743      0.00000
    167       3.2041      0.00000
    168       3.3212      0.00000
    169       3.5270      0.00000
    170       3.6181      0.00000
    171       3.7617      0.00000
    172       3.8926      0.00000

[...]

 soft charge-density along one line, spin component           2
         0         1         2         3         4         5         6         7         8         9
 total charge-density along one line

------------------------ aborting loop because EDIFF is reached ----------------------------------------

         DFTD3 V3.0 Rev 1
 Edisp (eV)   -4.45095

 E6    (eV) :    -3.1606
 E8    (eV) :    -1.2904
 % E8        : 28.99

  FORCE on cell =-STRESS in cart. coord.  units (eV):
  Direction    XX          YY          ZZ          XY          YZ          ZX
  Alpha Z   243.21196   243.21196   243.21196
  Ewald   19663.22587 14579.44621-19275.93311  -714.21533  -361.36249   535.35997
  Hartree 22399.77789 18759.26711-13212.95091  -483.48331  -349.41990   165.34860
  E(xc)   -1176.65440 -1182.58232 -1182.34841    -0.64862     0.19190     2.19890
  Local  -45643.99642-37016.13952 28796.40945  1174.50834   718.24347  -654.78047
  n-local  -482.79652  -471.24896  -496.47050     2.12443     2.20208    -0.98857
  augment   152.86668   152.01681   153.71659     0.80592    -0.05226    -0.08212
  Kinetic  4885.74509  4940.53204  4967.59837    10.10113    -9.78546   -46.74438
  Fock        0.00000     0.00000     0.00000     0.00000     0.00000     0.00000
  vdW        -1.43592    -1.64865    -0.49139    -0.08656    -0.00604     0.25717
  Total      39.94425     2.85468    -7.25797   -10.89400     0.01131     0.56910
  in kB      41.77182     2.98529    -7.59004   -11.39243     0.01182     0.59514

 VOLUME and BASIS-vectors are now :
  energy-cutoff  :      440.00
  volume of cell :     1532.08
      direct lattice vectors                 reciprocal lattice vectors
    11.905344842 -0.164036808  0.000000000     0.084686476  0.050121063 -0.000000000
    -5.952672421 10.057864255  0.000000000     0.001381178  0.100242126 -0.000000000
     0.000000000  0.000000000 12.900000000    -0.000000000 -0.000000000  0.077519380

  length of vectors
    11.906474872 11.687383895 12.900000000     0.098406911  0.100251641  0.077519380

 FORCES acting on ions:
    Electron-Ion                     Ewald-Force                    Non-Local-Force
   -.130E+02 0.663E+02 0.258E+03   0.134E+02 -.682E+02 -.255E+03   -.422E+00 0.178E+01 -.279E+01
   -.331E+01 -.437E+02 0.230E+03   0.596E+01 0.443E+02 -.228E+03   -.264E+01 -.615E+00 -.236E+01
   -.168E+02 0.916E+01 0.221E+03   0.142E+02 -.761E+01 -.220E+03   0.263E+01 -.155E+01 -.732E+00
   0.291E+02 -.976E+01 0.132E+03   -.295E+02 0.899E+01 -.136E+03   0.462E+00 0.793E+00 0.349E+01
   -.149E+02 0.129E+02 0.172E+03   0.158E+02 -.144E+02 -.175E+03   -.927E+00 0.156E+01 0.207E+01
   -.651E+02 -.612E+01 0.113E+03   0.676E+02 0.703E+01 -.115E+03   -.258E+01 -.876E+00 0.154E+01
   0.346E+02 0.123E+02 -.589E+02   -.342E+02 -.147E+02 0.560E+02   -.361E+00 0.241E+01 0.288E+01
   0.440E+02 0.252E+02 -.728E+02   -.420E+02 -.245E+02 0.720E+02   -.198E+01 -.637E+00 0.791E+00
   -.189E+02 -.513E+02 -.143E+03   0.162E+02 0.521E+02 0.142E+03   0.270E+01 -.685E+00 0.789E+00
   0.251E+02 -.302E+02 0.867E+02   -.268E+02 0.318E+02 -.875E+02   0.175E+01 -.167E+01 0.727E+00
   0.119E+03 -.983E+02 -.300E+03   -.120E+03 0.962E+02 0.301E+03   0.140E+01 0.210E+01 -.892E+00
   -.304E+02 -.318E+01 -.342E+02   0.322E+02 0.261E+01 0.368E+02   -.189E+01 0.596E+00 -.267E+01
   -.284E+02 0.310E+00 0.593E+02   0.283E+02 -.354E+01 -.580E+02   0.114E+00 0.315E+01 -.121E+01
   0.109E+03 0.512E+02 0.297E+03   -.108E+03 -.495E+02 -.299E+03   -.119E+01 -.167E+01 0.207E+01
   0.125E+02 0.462E+02 -.605E+02   -.158E+02 -.442E+02 0.611E+02   0.336E+01 -.209E+01 -.742E+00
   0.649E+02 0.330E+02 0.134E+03   -.678E+02 -.327E+02 -.135E+03   0.289E+01 -.233E+00 0.150E+01
   0.983E+01 -.756E+01 0.364E+03   -.885E+01 0.588E+01 -.367E+03   -.959E+00 0.173E+01 0.236E+01
   -.170E+02 -.169E+03 -.210E+03   0.196E+02 0.171E+03 0.210E+03   -.270E+01 -.217E+01 0.688E+00
   -.105E+03 0.414E+02 -.151E+03   0.103E+03 -.464E+02 0.157E+03   0.220E+01 0.493E+01 -.564E+01
   -.373E+02 0.123E+01 -.633E+02   0.401E+02 0.497E+00 0.619E+02   -.268E+01 -.171E+01 0.150E+01
   -.106E+03 -.754E+02 -.378E+03   0.106E+03 0.771E+02 0.379E+03   0.765E+00 -.165E+01 -.102E+01
   0.599E+02 -.143E+03 0.188E+03   -.624E+02 0.145E+03 -.187E+03   0.255E+01 -.143E+01 -.174E+01
   -.314E+02 -.517E+02 -.232E+03   0.316E+02 0.510E+02 0.235E+03   -.183E+00 0.709E+00 -.338E+01
   -.596E+02 0.540E+02 -.140E+03   0.614E+02 -.530E+02 0.141E+03   -.178E+01 -.114E+01 -.183E+01
   -.649E+02 0.157E+02 0.407E+03   0.677E+02 -.143E+02 -.423E+03   -.288E+01 -.135E+01 0.160E+02
   -.207E+03 0.507E+02 0.358E+03   0.238E+03 -.409E+02 -.377E+03   -.309E+02 -.982E+01 0.187E+02
   0.326E+02 0.305E+02 0.341E+03   -.462E+02 -.383E+02 -.375E+03   0.136E+02 0.781E+01 0.342E+02
   0.249E+02 0.175E+03 0.310E+03   -.158E+02 -.200E+03 -.336E+03   -.916E+01 0.248E+02 0.264E+02
   -.111E+03 0.772E+02 0.466E+03   0.119E+03 -.101E+03 -.495E+03   -.877E+01 0.238E+02 0.290E+02
   0.671E+02 0.640E+02 0.388E+03   -.805E+02 -.629E+02 -.423E+03   0.134E+02 -.113E+01 0.350E+02
   -.169E+03 -.796E+02 0.195E+03   0.199E+03 0.793E+02 -.215E+03   -.301E+02 0.351E+00 0.200E+02
   -.926E+01 -.223E+02 -.941E+01   0.917E+01 0.229E+02 0.955E+01   0.116E+00 -.523E+00 -.149E+00
   0.539E+02 0.456E+02 -.243E+03   -.568E+02 -.525E+02 0.259E+03   0.290E+01 0.685E+01 -.161E+02
   -.915E+02 0.650E+02 -.273E+03   0.115E+03 -.657E+02 0.301E+03   -.231E+02 0.656E+00 -.284E+02
   0.116E+03 -.151E+03 0.175E+03   -.148E+03 0.165E+03 -.175E+03   0.317E+02 -.134E+02 -.631E+00
   0.403E+02 -.440E+02 -.608E+03   -.431E+02 0.280E+02 0.634E+03   0.277E+01 0.160E+02 -.260E+02
   0.226E+03 0.486E+02 -.455E+03   -.243E+03 -.669E+02 0.480E+03   0.169E+02 0.183E+02 -.247E+02
   0.993E+02 -.574E+02 0.124E+03   -.118E+03 0.774E+02 -.126E+03   0.192E+02 -.200E+02 0.205E+01
   -.616E+02 0.934E+02 -.176E+03   0.824E+02 -.107E+03 0.204E+03   -.209E+02 0.133E+02 -.273E+02
   -.392E+02 -.140E+03 0.278E+03   0.431E+02 0.146E+03 -.282E+03   -.394E+01 -.677E+01 0.456E+01
   -.370E+02 0.530E+02 0.156E+02   0.460E+02 -.483E+02 -.793E+01   -.899E+01 -.477E+01 -.774E+01
   -.134E+03 -.221E+03 -.241E+03   0.154E+03 0.250E+03 0.249E+03   -.195E+02 -.288E+02 -.795E+01
   0.137E+03 0.296E+02 0.250E+03   -.168E+03 -.316E+02 -.268E+03   0.309E+02 0.208E+01 0.176E+02
   -.284E+02 0.485E+02 0.584E+03   0.373E+02 -.597E+02 -.617E+03   -.886E+01 0.113E+02 0.335E+02
   0.102E+03 0.218E+03 0.547E+03   -.106E+03 -.246E+03 -.569E+03   0.453E+01 0.284E+02 0.221E+02
   0.182E+03 0.805E+02 0.338E+03   -.211E+03 -.703E+02 -.354E+03   0.288E+02 -.103E+02 0.162E+02
   -.190E+03 -.283E+03 -.475E+03   0.216E+03 0.303E+03 0.489E+03   -.258E+02 -.191E+02 -.146E+02
   0.101E+03 -.146E+03 -.171E+03   -.103E+03 0.150E+03 0.171E+03   0.237E+01 -.447E+01 0.341E+00
   -.135E+03 0.219E+02 -.155E+03   0.136E+03 -.282E+02 0.149E+03   -.347E+00 0.628E+01 0.620E+01
   -.233E+03 0.432E+02 -.369E+03   0.257E+03 -.336E+02 0.393E+03   -.237E+02 -.967E+01 -.246E+02
   0.235E+03 -.212E+03 0.380E+03   -.266E+03 0.227E+03 -.385E+03   0.311E+02 -.149E+02 0.472E+01
   -.367E+02 0.148E+01 -.513E+03   0.418E+02 -.165E+02 0.548E+03   -.512E+01 0.150E+02 -.351E+02
   -.973E+02 -.590E+01 -.476E+03   0.957E+02 -.549E+01 0.512E+03   0.155E+01 0.114E+02 -.365E+02
   0.175E+03 -.155E+03 0.109E+03   -.198E+03 0.180E+03 -.106E+03   0.229E+02 -.248E+02 -.268E+01
   -.132E+03 0.787E+01 -.372E+03   0.157E+03 -.208E+01 0.398E+03   -.256E+02 -.583E+01 -.259E+02
   -.218E+02 0.127E+02 0.215E+02   0.230E+02 -.123E+02 -.192E+02   -.114E+01 -.443E+00 -.229E+01
   0.281E+03 0.601E+03 -.107E+04   -.289E+03 -.619E+03 0.108E+04   0.826E+01 0.182E+02 -.119E+02
   -.105E+03 -.418E+02 0.690E+02   0.117E+03 0.511E+02 -.918E+02   -.115E+02 -.934E+01 0.228E+02
   0.731E+02 0.717E+02 -.125E+03   -.986E+02 -.924E+02 0.175E+03   0.255E+02 0.207E+02 -.507E+02
   0.296E+01 -.413E+02 0.383E+02   0.171E-12 -.426E-13 -.398E-12   -.297E+01 0.413E+02 -.384E+02

 POSITION                                       TOTAL-FORCE (eV/Angst)
     -0.04195      1.89234      4.41903        -0.001543     -0.028831      0.030315
      0.93742      4.13125      4.50964        -0.024358      0.032408      0.038408
     -1.39363      3.72926      4.25262        -0.043830     -0.004779      0.010678
      5.67869     -0.06121      6.37517         0.030444     -0.000235      0.021966
      3.05581      4.06940      5.08188        -0.024824     -0.026251     -0.021520
      1.16600      0.45540      5.58205         0.025947      0.036814     -0.002387
     -3.31144      6.93242      6.43786         0.012449     -0.019442     -0.018688
     -1.64658      8.46094      7.24062         0.060874      0.008458      0.036495
     -3.84049      9.13588      7.04182         0.029202      0.021281     -0.047630
      1.57810      5.67973      6.07634         0.021671      0.003389     -0.007409
     -0.00545      9.05984      8.58207        -0.014315     -0.005079      0.003085
     -2.43990      5.05639      5.64496        -0.010501     -0.025822     -0.005259
      6.61261      1.95194      6.07784        -0.010002     -0.020496     -0.021110
      6.55931      3.86113      4.36156        -0.015906     -0.016037     -0.046188
      5.06035      3.77462      5.99551         0.002161     -0.059041     -0.054219
     10.66841      0.23196      5.64780        -0.001422      0.017370      0.027553
      8.51228      4.00344      3.64285         0.005686      0.003852     -0.009505
      7.32994      0.88631      7.91230        -0.010594     -0.020094     -0.006020
      2.49430      6.95174      7.90376         0.058767     -0.074118      0.014197
      3.84538      9.10956      7.36240         0.038228     -0.026697      0.022379
      2.09314      9.16224      8.85357         0.019367     -0.022195      0.003582
      7.34434      5.74630      4.88972         0.021847     -0.016931     -0.005776
      6.00688      9.46488      7.53901         0.015525      0.013411      0.012804
      3.82020      5.26439      7.09781         0.022473     -0.019098      0.005090
     -0.09092      3.23563      4.04992        -0.016287      0.064006      0.010563
      1.14930      1.33848      4.60432        -0.019134      0.006798      0.035734
     -1.14709      9.02259      6.13293        -0.001364     -0.013379     -0.003351
      4.19964      3.43925      5.03254        -0.038206     -0.023353     -0.005916
      2.13655      3.71346      4.18616        -0.008289     -0.035269      0.015252
      5.94955      0.92996      5.52613        -0.004646     -0.030439      0.018993
     -3.70065      9.85638      5.94891        -0.037308      0.027507     -0.002690
     -0.01312      0.15096      6.27705         0.024664      0.062828     -0.008851
     -2.97919      8.03658      7.16982        -0.008318     -0.005734      0.001590
     -2.42064      5.94229      6.61707         0.017150     -0.016695     -0.014103
      0.62978      5.20645      5.26380        -0.019009      0.016815      0.006309
      0.95664      8.59787      9.40292        -0.036351      0.011736     -0.017822
     -1.15148      8.41594      8.46783         0.020401      0.011648      0.002343
      1.41659      6.70307      6.93715         0.027796      0.007484      0.025024
     -1.57115      4.06534      5.53805        -0.039397     -0.004217      0.013796
      8.53146      5.02658      4.61651        -0.026086      0.002424      0.013432
      6.33097      3.24563      5.54365        -0.012795     -0.013018     -0.028365
      7.35640      2.00618      7.17906        -0.005527     -0.003314     -0.016572
      3.64410      9.60852      6.14141         0.010858      0.036612     -0.009480
     -2.18448      3.77951      3.20556         0.013012      0.035758      0.000001
      7.39087      3.34886      3.44321         0.033786      0.027022     -0.026243
     10.65997      1.13252      4.67601         0.029124      0.017551      0.006150
      8.22177      0.45886      8.77852         0.006489      0.014967     -0.029593
      6.23722      0.00742      7.66753        -0.013173      0.023134      0.014920
      2.77205      8.40405      8.02475         0.035440      0.004044      0.005217
      3.67609      6.21913      7.94761        -0.014075     -0.000605      0.010716
      6.23377      5.20867      4.41272         0.000412      0.029922      0.001470
     -4.73854      9.19675      8.01406         0.004252      0.009217      0.016989
      4.88823      9.15325      8.17356        -0.016297     -0.038239      0.006340
      7.47990      6.80663      5.69645        -0.053958     -0.020452     -0.040904
      4.96337      4.51822      7.05724        -0.028381     -0.039337     -0.029360
      2.80890      4.99144      6.09052        -0.007912     -0.001160      0.000032
      0.83133      6.41827      8.99772        -0.032089      0.061792      0.023283
      1.07347      5.68704     12.12103        -0.027929      0.011594      0.058025
      0.59132      5.29663      0.18004         0.035801      0.010514     -0.033771
    total drift:                               -0.013923      0.026839     -0.018233

  FREE ENERGIE OF THE ION-ELECTRON SYSTEM (eV)
  free  energy   TOTEN  =      -490.14873928 eV

  energy  without entropy=     -490.14873928  energy(sigma->0) =     -490.14873928

 d Force = 0.2453206E-02[ 0.170E-02, 0.320E-02]  d Energy = 0.2424385E-02 0.288E-04
 d Force = 0.3135448E+01[ 0.314E+01, 0.313E+01]  d Ewald  = 0.3135450E+01-0.200E-05

 Conjugate gradient step on ions:
 trial-energy change:   -0.002424  1 .order   -0.002453   -0.003202   -0.001705
  (g-gl).g = 0.470E-02      g.g   = 0.472E-02  gl.gl    = 0.590E-02
 g(Force)  = 0.472E-02   g(Stress)= 0.000E+00 ortho     = 0.266E-04
 gamma     =   0.79650
 trial     =   0.67515
 opt step  =   1.44370  (harmonic =   1.44370) maximal distance =0.00507954
 next E    =  -490.149738   (d E  =  -0.00342)

 reached required accuracy - stopping structural energy minimisation