 vasp.5.4.4.18Apr17-6-g9f103f2a35 (build Jan 14 2022 15:04:31) complex

 executed on             LinuxIFC date 2023.04.05  11:31:13

 INCAR:
 POTCAR:    PAW_PBE C 08Apr2002
 POTCAR:    PAW_PBE N 08Apr2002
 POTCAR:    PAW_PBE Ge_d 03Jul2007
 POTCAR:    PAW_PBE C 08Apr2002
   VRHFIN =C: s2p2

   TITEL  = PAW_PBE C 08Apr2002
   POMASS =   12.011; ZVAL   =    4.000    mass and valenz
   ENMAX  =  400.000; ENMIN  =  300.000 eV

   TITEL  = PAW_PBE N 08Apr2002
   POMASS =   14.001; ZVAL   =    5.000    mass and valenz
   ENMAX  =  400.000; ENMIN  =  300.000 eV

   TITEL  = PAW_PBE Ge_d 03Jul2007
   POMASS =   72.610; ZVAL   =   14.000    mass and valenz
   ENMAX  =  310.294; ENMIN  =  232.720 eV

  PAW_PBE C 08Apr2002                   :
  PAW_PBE N 08Apr2002                   :
  PAW_PBE Ge_d 03Jul2007                :

 POSCAR: POSCAR-c3n4
  positions in cartesian coordinates
 exchange correlation table for  LEXCH =        8
   RHO(1)=    0.500       N(1)  =     2000
   RHO(2)=  100.500       N(2)  =     4000

 VTST: version 3.2, (02/03/18)

 CHAIN: initializing optimizer

 OPT: Using VASP Dynamics algorithm
 CHAIN: Read ICHAIN            0

 POSCAR: POSCAR-c3n4
  positions in cartesian coordinates

 ion  position               nearest neighbor table
   1  0.106  0.214  0.426-  26 1.21  46 1.21  25 1.27   6 2.03  16 2.03
   2  0.288  0.399  0.433-  29 1.19  35 1.25  25 1.29   5 2.06
   3  0.104  0.392  0.427-  44 1.19  39 1.24  25 1.29  17 2.05
   4  0.447  0.064  0.506-  30 1.19  27 1.20  48 1.27  13 2.04   8 2.04
   5  0.453  0.401  0.413-  28 1.20  29 1.21  56 1.28  15 2.04   2 2.06
   6  0.112  0.053  0.449-  26 1.19  31 1.20  32 1.26   9 2.02   1 2.03
   7  0.096  0.712  0.484-  54 1.20  34 1.22  33 1.26  12 2.02  22 2.05
   8  0.284  0.890  0.501-  27 1.20  37 1.22  33 1.27   4 2.04  11 2.05
   9  0.109  0.895  0.498-  31 1.19  52 1.21  33 1.29   6 2.02  23 2.03
  10  0.448  0.548  0.502-  38 1.19  56 1.22  35 1.22  19 2.02  57 2.46
  11  0.445  0.885  0.489-  37 1.20  36 1.20  48 1.25  21 2.05   8 2.05
  12  0.087  0.542  0.481-  34 1.19  40 1.21  39 1.22   7 2.02  57 2.46
  13  0.616  0.223  0.473-  42 1.21  30 1.22  41 1.26   4 2.04  18 2.04
  14  0.780  0.390  0.400-  45 1.21  51 1.23  41 1.26  17 2.02  22 2.02
  15  0.610  0.394  0.435-  28 1.21  55 1.21  41 1.31  24 2.03   5 2.04
  16  0.940  0.052  0.461-  46 1.19  43 1.20  32 1.26  20 2.02   1 2.03
  17  0.941  0.387  0.394-  45 1.19  44 1.21  40 1.28  14 2.02   3 2.05
  18  0.623  0.066  0.512-  42 1.20  47 1.21  48 1.27  13 2.04  21 2.04
  19  0.613  0.711  0.531-  50 1.19  38 1.23  49 1.27  10 2.02  24 2.05
  20  0.790  0.897  0.523-  43 1.19  53 1.21  49 1.30  16 2.02  23 2.03
  21  0.609  0.892  0.521-  47 1.20  36 1.21  49 1.29  18 2.04  11 2.05
  22  0.938  0.563  0.421-  51 1.18  54 1.21  40 1.28  14 2.02   7 2.05
  23  0.954  0.902  0.535-  52 1.21  53 1.21  32 1.26  20 2.03   9 2.03
  24  0.621  0.555  0.490-  55 1.19  50 1.20  56 1.27  15 2.03  19 2.05
  25  0.167  0.335  0.425-   1 1.27   3 1.29   2 1.29
  26  0.165  0.161  0.421-   6 1.19   1 1.21
  27  0.336  0.002  0.522-   8 1.20   4 1.20
  28  0.512  0.352  0.392-   5 1.20  15 1.21
  29  0.345  0.361  0.390-   2 1.19   5 1.21
  30  0.506  0.177  0.493-   4 1.19  13 1.22
  31  0.159  0.988  0.447-   9 1.19   6 1.20
  32  0.002  0.002  0.483-  16 1.26  23 1.26   6 1.26
  33  0.165  0.831  0.500-   7 1.26   8 1.27   9 1.29
  34  0.134  0.645  0.518-  12 1.19   7 1.22
  35  0.334  0.491  0.492-  10 1.22   2 1.25  57 1.86
  36  0.503  0.831  0.490-  11 1.20  21 1.21
  37  0.333  0.829  0.479-  11 1.20   8 1.22
  38  0.499  0.648  0.545-  10 1.19  19 1.23
  39  0.142  0.484  0.485-  12 1.22   3 1.24  57 1.87
  40  0.988  0.496  0.436-  12 1.21  22 1.28  17 1.28
  41  0.667  0.330  0.429-  13 1.26  14 1.26  15 1.31
  42  0.680  0.178  0.495-  18 1.20  13 1.21
  43  0.827  0.986  0.468-  20 1.19  16 1.20
  44  0.011  0.348  0.379-   3 1.19  17 1.21
  45  0.830  0.330  0.380-  17 1.19  14 1.21
  46  0.993  0.161  0.435-  16 1.19   1 1.21
  47  0.669  0.005  0.539-  21 1.20  18 1.21
  48  0.505  0.004  0.498-  11 1.25  18 1.27   4 1.27
  49  0.668  0.832  0.534-  19 1.27  21 1.29  20 1.30
  50  0.675  0.666  0.512-  19 1.19  24 1.20
  51  0.832  0.507  0.396-  22 1.18  14 1.23
  52  0.016  0.853  0.549-  23 1.21   9 1.21
  53  0.849  0.860  0.566-  20 1.21  23 1.21
  54  0.004  0.677  0.435-   7 1.20  22 1.21
  55  0.668  0.491  0.484-  24 1.19  15 1.21
  56  0.506  0.502  0.467-  10 1.22  24 1.27   5 1.28
  57  0.287  0.593  0.558-  35 1.86  39 1.87  10 2.46  12 2.46

IMPORTANT INFORMATION: All symmetrisations will be switched off!
NOSYMM: (Re-)initialisation of all symmetry stuff for point group C_1.

 KPOINTS: K-Points

Automatic generation of k-mesh.
Space group operators:
 irot       det(A)        alpha          n_x          n_y          n_z        tau_x        tau_y        tau_z
    1     1.000000     0.000000     1.000000     0.000000     0.000000     0.000000     0.000000     0.000000

 Subroutine IBZKPT returns following result:

 Found      5 irreducible k-points:

 Following reciprocal coordinates:
            Coordinates               Weight
  0.000000  0.000000  0.000000      1.000000
  0.333333  0.000000  0.000000      2.000000
  0.000000  0.333333  0.000000      2.000000
  0.333333  0.333333  0.000000      2.000000
 -0.333333  0.333333  0.000000      2.000000

 Following cartesian coordinates:
            Coordinates               Weight
  0.000000  0.000000  0.000000      1.000000
  0.024277  0.014368  0.000000      2.000000
  0.000396  0.028736  0.000000      2.000000
  0.024673  0.043104  0.000000      2.000000
 -0.023881  0.014368  0.000000      2.000000

 TETIRR: Found     24 inequivalent tetrahedra from       54

 SYSTEM =  unknown system
 POSCAR =  POSCAR-c3n4

 Startparameter for this run:
   NWRITE =      2    write-flag & timer
   PREC   = normal    normal or accurate (medium, high low for compatibility)
   ISTART =      0    job   : 0-new  1-cont  2-samecut
   ICHARG =      2    charge: 1-file 2-atom 10-const
   ISPIN  =      2    spin polarized calculation?
   LNONCOLLINEAR =      F non collinear calculations
   LSORBIT =      F    spin-orbit coupling
   INIWAV =      1    electr: 0-lowe 1-rand  2-diag
   LASPH  =      F    aspherical Exc in radial PAW
   METAGGA=      F    non-selfconsistent MetaGGA calc.

 Electronic Relaxation 1
   ENCUT  =  440.0 eV  32.34 Ry    5.69 a.u.  21.31 20.92 23.09*2*pi/ulx,y,z
   ENINI  =  440.0     initial cutoff
   ENAUG  =  644.9 eV  augmentation charge cutoff
   NELM   =    100;   NELMIN=  2; NELMDL= -5     # of ELM steps
   EDIFF  = 0.1E-03   stopping-criterion for ELM
   LREAL  =      F    real-space projection
   NLSPLINE    = F    spline interpolate recip. space projectors
   LCOMPAT=      F    compatible to vasp.4.4
   GGA_COMPAT  = T    GGA compatible to vasp.4.4-vasp.4.6
   LMAXPAW     = -100 max onsite density
   LMAXMIX     =    2 max onsite mixed and CHGCAR
   VOSKOWN=      0    Vosko Wilk Nusair interpolation
   ROPT   =    0.00000   0.00000   0.00000
 Ionic relaxation
   EDIFFG = -.1E-01   stopping-criterion for IOM
   NSW    =      0    number of steps for IOM
   NBLOCK =      1;   KBLOCK =      1    inner block; outer block
   IBRION =     -1    ionic relax: 0-MD 1-quasi-New 2-CG
   NFREE  =      0    steps in history (QN), initial steepest desc. (CG)
   ISIF   =      2    stress and relaxation
   IWAVPR =     10    prediction:  0-non 1-charg 2-wave 3-comb
   ISYM   =      0    0-nonsym 1-usesym 2-fastsym
   LCORR  =      T    Harris-Foulkes like correction to forces

   POTIM  = 0.5000    time-step for ionic-motion
   TEIN   =    0.0    initial temperature
   TEBEG  =    0.0;   TEEND  =   0.0 temperature during run
   SMASS  =  -3.00    Nose mass-parameter (am)
   estimated Nose-frequenzy (Omega)   =  0.10E-29 period in steps =****** mass=  -0.355E-26a.u.
   SCALEE = 1.0000    scale energy and forces
   NPACO  =    256;   APACO  = 16.0  distance and # of slots for P.C.
   PSTRESS=    0.0 pullay stress

  Mass of Ions in am
   POMASS =  12.01 14.00 72.61
  Ionic Valenz
   ZVAL   =   4.00  5.00 14.00
  Atomic Wigner-Seitz radii
  virtual crystal weights
   VCA    =   1.00  1.00  1.00
   NELECT =     270.0000    total number of electrons
   NUPDOWN=      -1.0000    fix difference up-down

 DOS related values:
   EMIN   = -14.00;   EMAX   =  6.00  energy-range for DOS
   EFERMI =   0.00
   ISMEAR =    -5;   SIGMA  =   0.20  broadening in eV -4-tet -1-fermi 0-gaus

 Electronic relaxation 2 (details)
   IALGO  =     38    algorithm
   LDIAG  =      T    sub-space diagonalisation (order eigenvalues)
   LSUBROT=      F    optimize rotation matrix (better conditioning)
   TURBO    =      0    0=normal 1=particle mesh
   IRESTART =      0    0=no restart 2=restart with 2 vectors
   NREBOOT  =      0    no. of reboots
   NMIN     =      0    reboot dimension
   EREF     =   0.00    reference energy to select bands
   IMIX   =      4    mixing-type and parameters
     AMIX     =   0.25;   BMIX     =  0.00
     AMIX_MAG =   1.00;   BMIX_MAG =  0.00
     AMIN     =   0.10
     WC   =   100.;   INIMIX=   1;  MIXPRE=   1;  MAXMIX= -45

 Intra band minimization:
   WEIMIN = 0.0000     energy-eigenvalue tresh-hold
   EBREAK =  0.15E-06  absolut break condition
   DEPER  =   0.30     relativ break condition

   TIME   =   0.40     timestep for ELM

  volume/ion in A,a.u.               =      30.81       207.89
  Fermi-wavevector in a.u.,A,eV,Ry     =   0.877051  1.657386 10.465854  0.769219
  Thomas-Fermi vector in A             =   1.996946

 Write flags
   LWAVE        =      F    write WAVECAR
   LDOWNSAMPLE  =      F    k-point downsampling of WAVECAR
   LCHARG       =      F    write CHGCAR
   LVTOT        =      F    write LOCPOT, total local potential
   LVHAR        =      F    write LOCPOT, Hartree potential only
   LELF         =      F    write electronic localiz. function (ELF)
   LORBIT       =     11    0 simple, 1 ext, 2 COOP (PROOUT), +10 PAW based schemes

 Dipole corrections
   LMONO  =      F    monopole corrections only (constant potential shift)
   LDIPOL =      F    correct potential (dipole corrections)
   IDIPOL =      0    1-x, 2-y, 3-z, 4-all directions
   EPSILON=  1.0000000 bulk dielectric constant

 Exchange correlation treatment:
   GGA     =    --    GGA type
   VOSKOWN=      0    Vosko Wilk Nusair interpolation
   LHFCALC =     F    Hartree Fock is set to
   LHFONE  =     F    Hartree Fock one center treatment
   AEXX    =    0.0000 exact exchange contribution

 Linear response parameters
   LEPSILON=     F    determine dielectric tensor
   LRPA    =     F    only Hartree local field effects (RPA)
   LNABLA  =     F    use nabla operator in PAW spheres
   LVEL    =     F    velocity operator in full k-point grid
   LINTERFAST=   F  fast interpolation
   KINTER  =     0    interpolate to denser k-point grid
   CSHIFT  =0.1000    complex shift for real part using Kramers Kronig
   OMEGAMAX=  -1.0    maximum frequency
   DEG_THRESHOLD= 0.2000000E-02 threshold for treating states as degnerate
   RTIME   =   -0.100 relaxation time in fs
[...]
  Kinetic  4983.21930  5032.08765  5356.97174     9.54797   -30.18584   -13.18857
  Fock        0.00000     0.00000     0.00000     0.00000     0.00000     0.00000
  vdW        -2.85073    -2.88832    -0.22904    -0.02090    -0.03512     0.01322
  Total     474.67139   425.17662    92.63135    -8.64839    23.51972    13.01220
  in kB     433.10186   387.94161    84.51912    -7.89101    21.45997    11.87265

 VOLUME and BASIS-vectors are now :
  energy-cutoff  :      440.00
  volume of cell :     1755.96
      direct lattice vectors                 reciprocal lattice vectors
    12.459081811 -0.171666427  0.000000000     0.080922633  0.047893460  0.000000000
    -6.229540906 10.525671895  0.000000000     0.001319792  0.095786921  0.000000000
     0.000000000  0.000000000 13.500000000     0.000000000  0.000000000  0.074074074

  length of vectors
    12.460264401 12.230983146 13.500000000     0.094033271  0.095796013  0.074074074

 FORCES acting on ions
    electron-ion (+dipol)            ewald-force                    non-local-force                 convergence-correction
   -.643E+01 0.124E+02 0.136E+03   0.663E+01 -.127E+02 -.136E+03   -.250E+00 0.374E+01 -.164E+01   0.241E-01 0.166E-01 0.561E-02
   -.189E+01 0.335E+02 0.148E+03   0.129E+01 -.340E+02 -.149E+03   -.333E+01 0.798E+00 0.267E+00   0.251E-01 0.857E-02 0.640E-02
   -.139E+02 0.363E+02 0.147E+03   0.146E+02 -.367E+02 -.147E+03   0.300E+01 0.728E+00 0.633E+00   0.422E-01 0.181E-02 0.414E-02
   0.799E+02 -.654E+02 -.100E+03   -.834E+02 0.669E+02 0.101E+03   0.344E+01 -.184E+01 -.338E+00   -.136E-02 -.128E-01 0.285E-02
   -.165E+02 0.623E+02 0.231E+03   0.166E+02 -.651E+02 -.234E+03   -.390E+00 0.374E+01 0.219E+01   -.151E-01 0.237E-01 0.197E-01
   -.746E+02 -.214E+02 0.111E+03   0.780E+02 0.228E+02 -.113E+03   -.341E+01 -.173E+01 0.136E+01   0.127E-02 0.108E-01 0.201E-02
   0.472E+02 -.305E+02 -.383E+02   -.472E+02 0.308E+02 0.392E+02   0.687E+00 0.252E+01 0.871E+00   0.685E-02 0.140E-01 0.316E-02
   0.280E+02 -.197E+02 -.568E+02   -.277E+02 0.193E+02 0.567E+02   -.289E+01 -.197E+01 0.496E+00   0.304E-02 -.817E-02 0.757E-02
   -.748E+01 -.260E+01 -.690E+02   0.705E+01 0.188E+01 0.693E+02   0.327E+01 -.163E+01 0.332E+00   0.563E-02 -.378E-03 0.167E-02
   -.288E+02 0.203E+02 -.834E+02   0.267E+02 -.189E+02 0.851E+02   0.117E+01 -.196E+01 -.130E+01   0.880E-02 -.125E-01 -.919E-02
   -.396E+01 0.249E+02 0.546E+02   0.397E+01 -.291E+02 -.547E+02   0.896E-01 0.371E+01 -.646E+00   0.704E-02 -.186E-01 0.129E-01
   0.378E+02 0.184E+02 -.747E+02   -.358E+02 -.169E+02 0.767E+02   -.130E+01 -.240E+01 -.875E+00   0.228E-01 0.185E-01 0.102E-01
   -.437E+01 -.176E+02 -.179E+02   0.474E+01 0.167E+02 0.172E+02   -.171E+00 0.361E+01 -.720E+00   -.215E-01 0.253E-03 0.135E-02
   0.428E+02 0.327E+02 0.224E+03   -.427E+02 -.327E+02 -.224E+03   -.312E+01 -.136E+01 -.969E+00   -.249E-01 0.711E-02 0.681E-02
   -.133E+02 0.246E+02 0.101E+03   0.132E+02 -.255E+02 -.101E+03   0.330E+01 -.132E+01 -.506E+00   -.430E-01 0.181E-01 0.533E-02
   0.773E+02 -.201E+02 0.764E+02   -.808E+02 0.214E+02 -.774E+02   0.344E+01 -.182E+01 0.715E+00   0.424E-02 -.837E-02 0.590E-02
   0.365E+01 0.883E+02 0.248E+03   -.281E+01 -.913E+02 -.251E+03   -.108E+00 0.357E+01 0.204E+01   0.132E-01 0.694E-02 0.177E-02
   -.762E+02 -.690E+02 -.114E+03   0.799E+02 0.706E+02 0.115E+03   -.339E+01 -.177E+01 -.546E+00   -.530E-02 -.255E-01 0.560E-02
   -.399E+02 -.292E+02 -.163E+03   0.391E+02 0.300E+02 0.164E+03   -.374E+00 0.253E+01 0.922E+00   -.532E-02 -.146E-01 -.604E-02
   0.112E+02 -.429E+01 -.126E+03   -.110E+02 0.358E+01 0.127E+03   -.336E+01 -.154E+01 0.575E+00   -.979E-02 -.156E-01 0.156E-02
   -.309E+02 -.147E+02 -.103E+03   0.310E+02 0.143E+02 0.103E+03   0.286E+01 -.209E+01 0.105E+01   0.201E-02 -.253E-01 0.549E-02
   0.855E+02 -.815E+02 0.161E+03   -.877E+02 0.850E+02 -.161E+03   0.342E+01 -.249E+01 0.308E+00   0.108E-02 0.207E-01 0.756E-02
   -.124E+02 0.510E+02 -.218E+03   0.125E+02 -.549E+02 0.221E+03   -.679E-01 0.397E+01 -.173E+01   -.895E-02 -.103E-02 -.381E-03
   -.989E+02 -.298E+02 -.699E+02   0.102E+03 0.314E+02 0.716E+02   -.378E+01 -.125E+01 -.135E+01   -.362E-01 -.151E-01 -.670E-02
   -.166E+02 0.432E+02 0.196E+03   0.172E+02 -.441E+02 -.200E+03   -.345E+00 0.139E+01 0.302E+01   0.606E-01 0.221E-01 0.124E-01
   -.231E+03 -.390E+02 0.262E+03   0.270E+03 0.601E+02 -.278E+03   -.316E+02 -.165E+02 0.128E+02   0.745E-02 0.271E-01 0.520E-02
   0.186E+03 -.181E+03 -.277E+03   -.225E+03 0.202E+03 0.293E+03   0.309E+02 -.166E+02 -.107E+02   0.230E-02 -.137E-01 0.315E-02
   0.613E+01 0.203E+03 0.461E+03   -.288E+01 -.240E+03 -.491E+03   -.202E+01 0.291E+02 0.224E+02   -.337E-01 0.454E-01 0.313E-01
   -.419E+02 0.166E+03 0.487E+03   0.397E+02 -.199E+03 -.521E+03   0.192E+01 0.276E+02 0.253E+02   0.133E-01 0.403E-01 0.372E-01
   0.230E+03 -.117E+03 -.131E+03   -.268E+03 0.143E+03 0.132E+03   0.300E+02 -.194E+02 -.288E-01   -.192E-01 0.515E-02 0.513E-04
   -.174E+03 -.952E+02 0.296E+03   0.212E+03 0.107E+03 -.322E+03   -.304E+02 -.100E+02 0.196E+02   0.149E-02 0.100E-02 0.556E-02
   -.523E+01 -.229E+01 -.282E+02   0.559E+01 0.204E+01 0.296E+02   -.198E+00 0.122E+00 -.105E+01   -.241E-02 -.207E-02 0.389E-02
   0.186E+02 -.261E+02 -.113E+03   -.186E+02 0.270E+02 0.119E+03   0.248E+00 -.768E+00 -.400E+01   0.100E-01 -.153E-02 0.635E-02
   -.385E+01 -.715E+02 -.354E+03   0.310E+02 0.891E+02 0.385E+03   -.224E+02 -.139E+02 -.236E+02   0.293E-01 0.175E-01 0.884E-02
   0.109E+02 0.783E+02 -.889E+02   -.361E+02 -.739E+02 0.102E+03   0.191E+02 -.414E+01 -.105E+02   0.142E-01 0.108E-01 0.400E-02
   -.190E+02 0.136E+03 0.144E+03   0.226E+02 -.179E+03 -.158E+03   -.244E+01 0.340E+02 0.980E+01   0.195E-02 -.333E-01 0.169E-01
   -.690E+00 0.133E+03 0.161E+03   -.196E+01 -.175E+03 -.175E+03   0.163E+01 0.339E+02 0.987E+01   0.159E-01 -.195E-01 0.194E-01
   0.501E+02 -.700E+02 -.388E+03   -.830E+02 0.882E+02 0.412E+03   0.269E+02 -.143E+02 -.178E+02   -.138E-01 -.252E-01 -.128E-01
   -.336E+01 0.894E+02 -.125E+03   0.263E+02 -.858E+02 0.144E+03   -.175E+02 -.355E+01 -.142E+02   0.550E-01 0.296E-01 0.244E-01
   0.570E+02 0.208E+02 0.877E+02   -.629E+02 -.249E+02 -.877E+02   0.393E+01 0.280E+01 -.348E+00   0.143E-01 0.281E-01 0.117E-01
   0.168E+02 0.459E+02 0.174E+03   -.194E+02 -.479E+02 -.180E+03   0.199E+01 0.161E+01 0.400E+01   -.660E-01 0.194E-01 0.651E-02
   -.227E+03 -.123E+03 -.143E+03   0.265E+03 0.148E+03 0.145E+03   -.302E+02 -.185E+02 -.964E+00   -.772E-02 -.194E-01 0.119E-01
   0.178E+03 -.811E+02 0.229E+03   -.218E+03 0.929E+02 -.252E+03   0.315E+02 -.971E+01 0.166E+02   -.187E-02 -.267E-01 0.126E-01
   0.112E+02 0.191E+03 0.504E+03   -.595E+01 -.226E+03 -.535E+03   -.439E+01 0.286E+02 0.230E+02   0.424E-01 -.376E-02 -.465E-02
   0.301E+01 0.279E+03 0.419E+03   -.529E+01 -.323E+03 -.434E+03   0.919E+00 0.340E+02 0.108E+02   -.430E-02 -.114E-01 -.697E-02
   0.232E+03 -.404E+02 0.159E+03   -.273E+03 0.632E+02 -.167E+03   0.320E+02 -.176E+02 0.634E+01   0.234E-01 -.146E-02 0.656E-02
   -.170E+03 -.186E+03 -.341E+03   0.206E+03 0.207E+03 0.360E+03   -.295E+02 -.163E+02 -.137E+02   -.458E-03 -.365E-01 0.483E-02
   0.922E+00 -.380E+02 -.151E+02   -.803E+00 0.397E+02 0.120E+02   -.155E+00 -.111E+01 0.213E+01   -.142E-02 -.256E-01 0.986E-02
   -.179E+02 -.296E+02 -.221E+03   0.174E+02 0.323E+02 0.228E+03   0.167E+00 -.206E+01 -.538E+01   -.752E-02 -.230E-01 -.603E-03
   -.266E+03 -.778E+02 -.108E+03   0.305E+03 0.101E+03 0.110E+03   -.309E+02 -.183E+02 -.124E+01   -.342E-01 -.237E-01 -.463E-02
   0.210E+03 -.176E+03 0.355E+03   -.250E+03 0.195E+03 -.366E+03   0.309E+02 -.166E+02 0.657E+01   -.302E-01 0.203E-01 0.683E-02
   -.232E+00 0.177E+03 -.449E+03   0.596E+01 -.212E+03 0.479E+03   -.422E+01 0.287E+02 -.228E+02   0.490E-03 0.283E-02 -.106E-02
   -.410E+02 0.136E+03 -.504E+03   0.393E+02 -.169E+03 0.539E+03   0.119E+01 0.272E+02 -.262E+02   -.203E-01 -.603E-02 -.635E-02
   0.222E+03 -.152E+03 0.275E+03   -.254E+03 0.180E+03 -.292E+03   0.245E+02 -.225E+02 0.121E+02   0.763E-02 0.221E-01 0.103E-01
   -.199E+03 -.873E+02 -.216E+03   0.240E+03 0.983E+02 0.235E+03   -.321E+02 -.970E+01 -.141E+02   -.622E-01 -.300E-02 -.110E-01
   -.537E+02 0.242E+02 0.515E+02   0.578E+02 -.276E+02 -.550E+02   -.267E+01 0.215E+01 0.210E+01   -.126E-01 -.103E-01 -.415E-02
   0.540E+02 -.133E+03 -.116E+04   -.558E+02 0.155E+03 0.119E+04   0.141E+01 -.192E+02 -.252E+02   0.126E+00 0.126E-01 -.697E-01
   0.304E+01 -.393E+01 0.426E+01   -.270E-12 0.483E-12 -.227E-12   -.314E+01 0.393E+01 -.446E+01   0.104E+00 0.707E-02 0.233E+00

 POSITION                                       TOTAL-FORCE (eV/Angst)
     -0.01346      2.22929      5.75727        -0.022217      3.491012     -1.191504
      1.09855      4.14684      5.84763        -3.911647      0.377134     -0.004153
     -1.14740      4.10586      5.76838         3.813545      0.398135      0.412349
      5.17561      0.59516      6.82687        -0.064932     -0.426635      0.717101
      3.13925      4.14572      5.56909        -0.281915      0.937284     -0.570795
      1.06731      0.53588      6.05720        -0.019134     -0.347623     -0.286670
     -3.23407      7.47679      6.53267         0.727343      2.755407      1.698591
     -2.00208      9.31971      6.76622        -2.643095     -2.437134      0.404965
     -4.21457      9.40563      6.72469         2.845305     -2.353409      0.681725
      2.16526      5.69403      6.77570        -0.856729     -0.584731      0.379287
      0.03547      9.24088      6.60110         0.112761     -0.529863     -0.806280
     -2.29426      5.69109      6.48906         0.730360     -0.922167      1.189353
      6.28791      2.24068      6.38151         0.178194      2.738733     -1.434530
      7.29350      3.96773      5.39842        -3.072271     -1.329267     -0.713799
      5.14829      4.04574      5.87873         3.172470     -2.200506     -0.516908
     11.37972      0.38919      6.21945        -0.104954     -0.534845     -0.317074
      9.31259      3.90699      5.31738         0.750793      0.663577     -0.856246
      7.35078      0.58337      6.91243         0.296388     -0.187178      0.640008
      3.20992      7.38042      7.17186        -1.256295      3.315095      1.658207
      4.25119      9.30881      7.05888        -3.254126     -2.265601      1.668823
      2.03334      9.28936      7.03791         3.014342     -2.549939      1.155573
      8.18441      5.76313      5.67688         1.149902      1.038981     -0.239808
      6.27316      9.32736      7.21797         0.005366      0.043714      0.991744
      4.28565      5.73146      6.61311        -0.803326      0.289981      0.341684
     -0.01292      3.50225      5.73788         0.299200      0.568070     -0.670227
      1.04973      1.66604      5.68285         7.860898      4.637044     -3.787232
      4.17831     -0.03871      7.04913        -7.705908      4.408261      4.799068
      4.18031      3.62212      5.29721         1.216045     -7.371177     -7.288005
      2.04758      3.73791      5.26166        -0.332937     -6.063442     -7.962993
      5.19905      1.77345      6.65755        -7.758635      6.439004      1.171872
     -4.17849     10.37442      6.02986         7.750863      2.312444     -6.512943
      0.01514      0.01925      6.51836         0.158524     -0.124761      0.427026
     -3.12460      8.71679      6.75350         0.237452      0.198642      1.399940
     -2.35012      6.76887      6.99014         4.857659      3.744083      7.841963
      1.09805      5.11253      6.63593        -6.059866      0.318102      2.803297
      1.09008      8.65820      6.61127         1.223830     -8.835944     -3.778875
     -1.01655      8.67205      6.47155        -1.012077     -8.806440     -3.797510
      2.18041      6.73531      7.35526        -6.028731      3.899364      6.828530
     -1.24698      5.06637      6.54907         5.492421      0.071504      4.390283
      9.22492      5.05059      5.88584        -1.915454     -1.249298     -0.369956
      6.25804      3.36053      5.79579        -0.625905     -0.377093     -1.612105
      7.35947      1.75711      6.68571         7.958394      6.190577      0.761364
      4.16245     10.23868      6.31596        -8.089113      2.067935     -6.037963
     -2.03180      3.66210      5.11383         0.884614     -6.402741     -7.963164
      8.29024      3.33265      5.12364        -1.370714     -9.546595     -4.343112
     11.36832      1.52437      5.87427        -8.150838      5.170649     -1.968154
      8.30081     -0.05962      7.28299         7.040702      4.491774      5.593177
      6.26576     -0.04579      6.72717        -0.042389      0.542740     -0.923977
      3.14175      8.64554      7.21169        -0.361085      0.533715      1.918341
      4.26857      6.88905      6.91827         8.559418      4.754152      0.204753
      7.21106      5.19019      5.34258        -9.074210      3.244009     -4.418936
     -5.11637      8.97562      7.40714         1.521225     -7.166940      7.121971
      5.22610      8.90171      7.64167        -0.501263     -5.783371      8.423435
     -4.16619      7.12793      5.86649        -6.827714      5.935265     -4.502736
      5.25639      5.05644      6.53158         9.104393      1.310661      4.814751
      3.17404      5.19494      6.30668         1.468431     -1.197606     -1.378672
     -0.12055      6.19125      7.53023        -0.283360      2.707257      3.815151
    total drift:                               -0.003974      0.005630      0.034039

  FREE ENERGIE OF THE ION-ELECTRON SYSTEM (eV)
  free  energy   TOTEN  =      -432.29900944 eV

  energy  without entropy=     -432.29900944  energy(sigma->0) =     -432.29900944

 stress matrix after NEB project (eV)
    474.67139     -8.64839     13.01220
     -8.64839    425.17662     23.51972
     13.01220     23.51972     92.63135
  FORCES: max atom, RMS    10.601503    6.723157
  FORCE total and by dimension   50.758719    9.546595
  Stress total and by dimension  645.184651  474.671394

 total charge

[...]

 magnetization (x)

# of ion       s       p       d       tot
    1        0.000  -0.000   0.000   0.000
    2        0.000   0.000   0.000   0.000
    3        0.000  -0.000   0.000  -0.000
    4       -0.000  -0.000   0.000  -0.000
    5        0.000   0.000   0.000   0.000
    6        0.000   0.000   0.000   0.000
    7       -0.000  -0.000   0.000  -0.000
    8        0.000   0.000   0.000   0.000
    9        0.000  -0.000   0.000   0.000
   10        0.000   0.000   0.000   0.000
   11        0.000  -0.000   0.000  -0.000
   12        0.000   0.000   0.000   0.000
   13        0.000  -0.000   0.000  -0.000
   14       -0.000  -0.000   0.000  -0.000
   15        0.000   0.000   0.000   0.000
   16        0.000  -0.000   0.000   0.000
   17       -0.000  -0.000   0.000  -0.000
   18        0.000  -0.000   0.000  -0.000
   19        0.000   0.000   0.000   0.000
   20        0.000  -0.000   0.000  -0.000
   21        0.000  -0.000   0.000   0.000
   22       -0.000  -0.000   0.000  -0.000
   23        0.000  -0.000   0.000  -0.000
   24        0.000   0.000   0.000   0.000
   25        0.000  -0.000   0.000  -0.000
   26        0.000  -0.000   0.000  -0.000
   27        0.000   0.000   0.000   0.000
   28       -0.000  -0.000   0.000  -0.000
   29       -0.000   0.000   0.000   0.000
   30        0.000  -0.000   0.000  -0.000
   31        0.000  -0.000   0.000  -0.000
   32        0.000   0.000   0.000   0.000
   33       -0.000   0.000   0.000   0.000
   34        0.000   0.000   0.000   0.000
   35        0.000   0.000   0.000   0.000
   36        0.000  -0.000   0.000   0.000
   37        0.000  -0.000   0.000  -0.000
   38        0.000  -0.000   0.000   0.000
   39        0.000   0.000   0.000   0.000
   40       -0.000  -0.000   0.000  -0.000
   41       -0.000  -0.000   0.000  -0.000
   42       -0.000  -0.000   0.000  -0.000
   43        0.000   0.000   0.000   0.000
   44       -0.000   0.000   0.000   0.000
   45       -0.000   0.000   0.000   0.000
   46        0.000  -0.000   0.000   0.000
   47        0.000   0.000   0.000   0.000
   48        0.000  -0.000   0.000  -0.000
   49        0.000  -0.000   0.000  -0.000
   50        0.000  -0.000   0.000  -0.000
   51       -0.000   0.000   0.000  -0.000
   52        0.000   0.000   0.000   0.000
   53       -0.000  -0.000   0.000  -0.000
   54       -0.000   0.000   0.000   0.000
   55        0.000  -0.000   0.000  -0.000
   56        0.000  -0.000   0.000  -0.000
   57       -0.000  -0.000   0.000  -0.000
tot          0.000  -0.000   0.000   0.000

 BZINTS: Fermi energy: -0.745436;270.000000 electrons
         Band energy:***********;  BLOECHL correction:  0.000000