 vasp.5.4.4.18Apr17-6-g9f103f2a35 (build Nov  8 2022 18:58:45) complex
 executed on             LinuxGNU date 2023.04.13  15:54:38

 INCAR:
 POTCAR:    PAW_PBE C 08Apr2002
 POTCAR:    PAW_PBE N 08Apr2002
 POTCAR:    PAW_PBE Ge_d 03Jul2007
 POTCAR:    PAW_PBE C 08Apr2002
 POTCAR:    PAW_PBE O 08Apr2002
 POTCAR:    PAW_PBE C 08Apr2002
   VRHFIN =C: s2p2

   TITEL  = PAW_PBE C 08Apr2002
   POMASS =   12.011; ZVAL   =    4.000    mass and valenz
   ENMAX  =  400.000; ENMIN  =  300.000 eV

[...]

   TITEL  = PAW_PBE Ge_d 03Jul2007
   POMASS =   72.610; ZVAL   =   14.000    mass and valenz
   ENMAX  =  310.294; ENMIN  =  232.720 eV

[...]

   TITEL  = PAW_PBE O 08Apr2002
   POMASS =   16.000; ZVAL   =    6.000    mass and valenz
   ENMAX  =  400.000; ENMIN  =  300.000 eV

  PAW_PBE C 08Apr2002                   :
  PAW_PBE N 08Apr2002                   :
  PAW_PBE Ge_d 03Jul2007                :
  PAW_PBE C 08Apr2002                   :
  PAW_PBE O 08Apr2002                   :

 POSCAR: POSCAR-c3n4
  positions in direct lattice
  velocities in cartesian coordinates
 exchange correlation table for  LEXCH =        8
   RHO(1)=    0.500       N(1)  =     2000
   RHO(2)=  100.500       N(2)  =     4000

 ion  position               nearest neighbor table
   1  0.102  0.209  0.418-  26 1.33  46 1.36  25 1.38
   2  0.291  0.408  0.435-  29 1.31  35 1.39  25 1.41
   3  0.100  0.392  0.418-  44 1.31  39 1.36  25 1.38
   4  0.448  0.063  0.516-  30 1.32  27 1.33  48 1.41
   5  0.471  0.431  0.408-  28 1.32  29 1.33  56 1.41
   6  0.116  0.052  0.465-  31 1.31  26 1.32  32 1.41
   7  0.075  0.702  0.512-  54 1.33  34 1.35  33 1.39
   8  0.279  0.878  0.533-  27 1.34  37 1.34  33 1.38
   9  0.114  0.901  0.540-  31 1.32  52 1.33  33 1.40
  10  0.447  0.543  0.535-  38 1.32  35 1.36  56 1.36
  11  0.444  0.872  0.508-  36 1.33  37 1.33  48 1.37
  12  0.059  0.523  0.492-  34 1.32  39 1.34  40 1.34
  13  0.625  0.224  0.466-  42 1.35  30 1.36  41 1.39
  14  0.776  0.394  0.362-  45 1.35  41 1.35  51 1.39
  15  0.623  0.404  0.434-  28 1.32  55 1.34  41 1.42
  16  0.934  0.051  0.479-  46 1.32  43 1.33  32 1.40
  17  0.943  0.396  0.360-  45 1.31  44 1.33  40 1.43
  18  0.632  0.066  0.526-  42 1.33  47 1.33  48 1.42
  19  0.616  0.701  0.592-  50 1.33  38 1.37  49 1.39
  20  0.795  0.904  0.574-  53 1.32  43 1.34  49 1.43
  21  0.609  0.886  0.566-  36 1.33  47 1.34  49 1.40
  22  0.928  0.572  0.411-  51 1.30  54 1.35  40 1.42
  23  0.976  0.936  0.592-  52 1.33  53 1.34  32 1.38
  24  0.631  0.551  0.525-  55 1.32  50 1.33  56 1.42
  25  0.167  0.335  0.417-   1 1.38   3 1.38   2 1.41
  26  0.165  0.154  0.414-   6 1.32   1 1.33
  27  0.337  0.999  0.549-   4 1.33   8 1.34
  28  0.535  0.386  0.376-   5 1.32  15 1.32
  29  0.360  0.389  0.378-   2 1.31   5 1.33
  30  0.509  0.180  0.493-   4 1.32  13 1.36
  31  0.153  0.974  0.466-   6 1.31   9 1.32
  32  0.014  0.021  0.520-  23 1.38  16 1.40   6 1.41
  33  0.156  0.820  0.544-   8 1.38   7 1.39   9 1.40
  34  0.096  0.618  0.549-  12 1.32   7 1.35
  35  0.328  0.485  0.513-  10 1.36   2 1.39  57 2.07
  36  0.504  0.815  0.522-  11 1.33  21 1.33
  37  0.324  0.809  0.506-  11 1.33   8 1.34
  38  0.493  0.631  0.599-  10 1.32  19 1.37
  39  0.117  0.462  0.496-  12 1.34   3 1.36  57 2.14
  40  0.977  0.496  0.424-  12 1.34  22 1.42  17 1.43
  41  0.673  0.331  0.413-  14 1.35  13 1.39  15 1.42
  42  0.695  0.181  0.496-  18 1.33  13 1.35
  43  0.818  0.970  0.495-  16 1.33  20 1.34
  44  0.024  0.363  0.348-   3 1.31  17 1.33
  45  0.833  0.338  0.330-  17 1.31  14 1.35
  46  0.981  0.152  0.428-  16 1.32   1 1.36
  47  0.671  0.007  0.578-  18 1.33  21 1.34
  48  0.507  0.998  0.504-  11 1.37   4 1.41  18 1.42
  49  0.670  0.828  0.596-  19 1.39  21 1.40  20 1.43
  50  0.685  0.656  0.573-  24 1.33  19 1.33
  51  0.827  0.521  0.364-  22 1.30  14 1.39
  52  0.041  0.885  0.612-  23 1.33   9 1.33
  53  0.869  0.894  0.633-  20 1.32  23 1.34
  54  0.994  0.686  0.447-   7 1.33  22 1.35
  55  0.675  0.480  0.508-  24 1.32  15 1.34
  56  0.516  0.512  0.486-  10 1.36   5 1.41  24 1.42
  57  0.262  0.576  0.589-  35 2.07  39 2.14
  58  0.277  0.592  0.815-  59 1.14
  59  0.223  0.500  0.854-  58 1.14

IMPORTANT INFORMATION: All symmetrisations will be switched off!
NOSYMM: (Re-)initialisation of all symmetry stuff for point group C_1.

 KPOINTS: K-Points

Automatic generation of k-mesh.
Space group operators:
 irot       det(A)        alpha          n_x          n_y          n_z        tau_x        tau_y        tau_z
    1     1.000000     0.000000     1.000000     0.000000     0.000000     0.000000     0.000000     0.000000

 Subroutine IBZKPT returns following result:

 Found      5 irreducible k-points:

 Following reciprocal coordinates:
            Coordinates               Weight
  0.000000  0.000000  0.000000      1.000000
  0.333333  0.000000  0.000000      2.000000
  0.000000  0.333333  0.000000      2.000000
  0.333333  0.333333  0.000000      2.000000
 -0.333333  0.333333  0.000000      2.000000

 Following cartesian coordinates:
            Coordinates               Weight
  0.000000  0.000000  0.000000      1.000000
  0.024277  0.014368  0.000000      2.000000
  0.000396  0.028736  0.000000      2.000000
  0.024673  0.043104  0.000000      2.000000
 -0.023881  0.014368  0.000000      2.000000

 TETIRR: Found     24 inequivalent tetrahedra from       54

 SYSTEM =  unknown system
 POSCAR =  POSCAR-c3n4

 Startparameter for this run:
   NWRITE =      2    write-flag & timer
   PREC   = normal    normal or accurate (medium, high low for compatibility)
   ISTART =      0    job   : 0-new  1-cont  2-samecut
   ICHARG =      2    charge: 1-file 2-atom 10-const
   ISPIN  =      2    spin polarized calculation?
   LNONCOLLINEAR =      F non collinear calculations
   LSORBIT =      F    spin-orbit coupling
   INIWAV =      1    electr: 0-lowe 1-rand  2-diag
   LASPH  =      F    aspherical Exc in radial PAW
   METAGGA=      F    non-selfconsistent MetaGGA calc.

 Electronic Relaxation 1
   ENCUT  =  440.0 eV  32.34 Ry    5.69 a.u.  22.26 21.85 24.12*2*pi/ulx,y,z
   ENINI  =  440.0     initial cutoff
   ENAUG  =  644.9 eV  augmentation charge cutoff
   NELM   =    100;   NELMIN=  2; NELMDL= -5     # of ELM steps
   EDIFF  = 0.1E-03   stopping-criterion for ELM
   LREAL  =      F    real-space projection
   NLSPLINE    = F    spline interpolate recip. space projectors
   LCOMPAT=      F    compatible to vasp.4.4
   GGA_COMPAT  = T    GGA compatible to vasp.4.4-vasp.4.6
   LMAXPAW     = -100 max onsite density
   LMAXMIX     =    2 max onsite mixed and CHGCAR
   VOSKOWN=      0    Vosko Wilk Nusair interpolation
   ROPT   =    0.00000   0.00000   0.00000   0.00000
   ROPT   =    0.00000
 Ionic relaxation
   EDIFFG = -.1E-01   stopping-criterion for IOM
   NSW    =      0    number of steps for IOM
   NBLOCK =      1;   KBLOCK =      1    inner block; outer block
   IBRION =     -1    ionic relax: 0-MD 1-quasi-New 2-CG
   NFREE  =      0    steps in history (QN), initial steepest desc. (CG)
   ISIF   =      2    stress and relaxation
   IWAVPR =     10    prediction:  0-non 1-charg 2-wave 3-comb
   ISYM   =      0    0-nonsym 1-usesym 2-fastsym
   LCORR  =      T    Harris-Foulkes like correction to forces

   POTIM  = 0.5000    time-step for ionic-motion
   TEIN   =    0.0    initial temperature
   TEBEG  =    0.0;   TEEND  =   0.0 temperature during run
   SMASS  =  -3.00    Nose mass-parameter (am)
   estimated Nose-frequenzy (Omega)   =  0.10E-29 period in steps =****** mass=  -0.387E-26a.u.
   SCALEE = 1.0000    scale energy and forces
   NPACO  =    256;   APACO  = 16.0  distance and # of slots for P.C.
   PSTRESS=    0.0 pullay stress

  Mass of Ions in am
   POMASS =  12.01 14.00 72.61 12.01 16.00
  Ionic Valenz
   ZVAL   =   4.00  5.00 14.00  4.00  6.00
  Atomic Wigner-Seitz radii
  virtual crystal weights
   VCA    =   1.00  1.00  1.00  1.00  1.00
   NELECT =     280.0000    total number of electrons
   NUPDOWN=      -1.0000    fix difference up-down

 DOS related values:
   EMIN   = -14.00;   EMAX   =  6.00  energy-range for DOS
   EFERMI =   0.00
   ISMEAR =    -5;   SIGMA  =   0.20  broadening in eV -4-tet -1-fermi 0-gaus

 Electronic relaxation 2 (details)
   IALGO  =     38    algorithm
   LDIAG  =      T    sub-space diagonalisation (order eigenvalues)
   LSUBROT=      F    optimize rotation matrix (better conditioning)
   TURBO    =      0    0=normal 1=particle mesh
   IRESTART =      0    0=no restart 2=restart with 2 vectors
   NREBOOT  =      0    no. of reboots
   NMIN     =      0    reboot dimension
   EREF     =   0.00    reference energy to select bands
   IMIX   =      4    mixing-type and parameters
     AMIX     =   0.25;   BMIX     =  0.00
     AMIX_MAG =   1.00;   BMIX_MAG =  0.00
     AMIN     =   0.10
     WC   =   100.;   INIMIX=   1;  MIXPRE=   1;  MAXMIX= -45

 Intra band minimization:
   WEIMIN = 0.0000     energy-eigenvalue tresh-hold
   EBREAK =  0.15E-06  absolut break condition
   DEPER  =   0.30     relativ break condition

   TIME   =   0.40     timestep for ELM

  volume/ion in A,a.u.               =      33.91       228.83
  Fermi-wavevector in a.u.,A,eV,Ry     =   0.849971  1.606213  9.829547  0.722451
  Thomas-Fermi vector in A             =   1.965876

 Write flags
   LWAVE        =      F    write WAVECAR
   LDOWNSAMPLE  =      F    k-point downsampling of WAVECAR
   LCHARG       =      F    write CHGCAR
   LVTOT        =      F    write LOCPOT, total local potential
   LVHAR        =      F    write LOCPOT, Hartree potential only
   LELF         =      F    write electronic localiz. function (ELF)
   LORBIT       =     11    0 simple, 1 ext, 2 COOP (PROOUT), +10 PAW based schemes

 Dipole corrections
   LMONO  =      F    monopole corrections only (constant potential shift)
   LDIPOL =      F    correct potential (dipole corrections)
   IDIPOL =      0    1-x, 2-y, 3-z, 4-all directions
   EPSILON=  1.0000000 bulk dielectric constant

 Exchange correlation treatment:
   GGA     =    --    GGA type
   VOSKOWN=      0    Vosko Wilk Nusair interpolation
   LHFCALC =     F    Hartree Fock is set to
   LHFONE  =     F    Hartree Fock one center treatment
   AEXX    =    0.0000 exact exchange contribution

 Linear response parameters
   LEPSILON=     F    determine dielectric tensor
   LRPA    =     F    only Hartree local field effects (RPA)
   LNABLA  =     F    use nabla operator in PAW spheres
   LVEL    =     F    velocity operator in full k-point grid
   LINTERFAST=   F  fast interpolation
   KINTER  =     0    interpolate to denser k-point grid
   CSHIFT  =0.1000    complex shift for real part using Kramers Kronig
   OMEGAMAX=  -1.0    maximum frequency
   DEG_THRESHOLD= 0.2000000E-02 threshold for treating states as degnerate
   RTIME   =   -0.100 relaxation time in fs
  (WPLASMAI=    0.000 imaginary part of plasma frequency in eV, 0.658/RTIME)
   DFIELD  = 0.0000000 0.0000000 0.0000000 field for delta impulse in time

 Orbital magnetization related:
   ORBITALMAG=     F  switch on orbital magnetization
   LCHIMAG   =     F  perturbation theory with respect to B field
[...]
  Total      44.18497     5.59455    -6.89305   -12.16586    -0.21258     0.15019
  in kB      35.38470     4.48029    -5.52017    -9.74280    -0.17024     0.12028

 VOLUME and BASIS-vectors are now :
  energy-cutoff  :      440.00
  volume of cell :     2000.64
      direct lattice vectors                 reciprocal lattice vectors
    13.012818781 -0.179296046  0.000000000     0.077479116  0.045855441 -0.000000000
    -6.506409390 10.993479534  0.000000000     0.001263631  0.091710882 -0.000000000
     0.000000000  0.000000000 14.100000000    -0.000000000 -0.000000000  0.070921986

  length of vectors
    13.014053930 12.774582397 14.100000000     0.090031855  0.091719587  0.070921986

 FORCES acting on ions
    electron-ion (+dipol)            ewald-force                    non-local-force                 convergence-correction
   -.613E+01 0.354E+02 0.195E+03   0.634E+01 -.388E+02 -.192E+03   -.178E+00 0.332E+01 -.249E+01   0.120E-02 0.872E-03 -.113E-03
   -.138E+02 0.940E+01 0.150E+03   0.170E+02 -.913E+01 -.150E+03   -.308E+01 -.169E+00 0.241E+00   0.178E-02 -.369E-02 -.225E-02
   -.135E+02 0.843E+01 0.171E+03   0.110E+02 -.806E+01 -.172E+03   0.253E+01 -.297E+00 0.102E+01   0.565E-02 -.344E-02 -.290E-02
   0.650E+02 -.613E+02 -.482E+02   -.675E+02 0.629E+02 0.484E+02   0.254E+01 -.157E+01 -.131E+00   -.537E-02 0.992E-02 0.616E-03
   -.574E+01 -.287E+01 0.244E+03   0.605E+01 0.108E+01 -.247E+03   -.291E+00 0.182E+01 0.263E+01   0.506E-02 -.254E-02 0.401E-02
   -.625E+02 -.139E+02 0.107E+03   0.650E+02 0.145E+02 -.109E+03   -.267E+01 -.503E+00 0.190E+01   0.674E-02 0.219E-02 -.418E-02
   0.663E+02 -.179E+02 -.623E+02   -.666E+02 0.155E+02 0.605E+02   0.345E+00 0.227E+01 0.177E+01   0.140E-02 -.181E-02 0.616E-03
   0.315E+01 -.274E+02 -.733E+02   -.648E+00 0.292E+02 0.719E+02   -.245E+01 -.175E+01 0.136E+01   0.213E-02 0.252E-02 0.175E-02
   -.565E+00 -.176E+02 -.107E+03   -.212E+01 0.196E+02 0.107E+03   0.264E+01 -.191E+01 0.119E+00   -.141E-02 0.252E-02 0.150E-03
   -.276E+02 0.402E+02 -.894E+02   0.266E+02 -.390E+02 0.911E+02   0.103E+01 -.111E+01 -.169E+01   0.263E-02 0.324E-02 0.145E-02
   -.432E+01 0.101E+02 0.865E+02   0.431E+01 -.127E+02 -.850E+02   0.280E-01 0.268E+01 -.138E+01   0.421E-02 -.896E-02 0.596E-02
   0.520E+02 0.391E+02 -.627E+02   -.511E+02 -.376E+02 0.644E+02   -.927E+00 -.138E+01 -.174E+01   0.254E-02 0.773E-02 0.785E-02
   -.651E+01 0.150E+02 0.417E+02   0.680E+01 -.190E+02 -.405E+02   -.309E+00 0.382E+01 -.112E+01   -.765E-02 0.139E-02 0.476E-02
   0.541E+02 0.350E+02 0.315E+03   -.512E+02 -.333E+02 -.316E+03   -.278E+01 -.161E+01 0.780E+00   -.823E-02 0.619E-02 0.374E-02
   0.108E+02 0.149E+02 0.951E+02   -.136E+02 -.133E+02 -.942E+02   0.282E+01 -.147E+01 -.863E+00   0.490E-03 0.132E-02 0.523E-02
   0.724E+02 -.433E+01 0.797E+02   -.753E+02 0.493E+01 -.810E+02   0.297E+01 -.599E+00 0.130E+01   -.894E-02 0.203E-03 -.198E-02
   -.165E+02 0.403E+02 0.297E+03   0.172E+02 -.426E+02 -.299E+03   -.507E+00 0.238E+01 0.224E+01   -.149E-02 -.385E-02 -.343E-02
   -.546E+02 -.661E+02 -.676E+02   0.573E+02 0.675E+02 0.679E+02   -.271E+01 -.154E+01 -.289E+00   0.529E-02 0.347E-02 0.350E-02
   -.473E+02 -.434E+01 -.235E+03   0.475E+02 0.196E+01 0.233E+03   -.205E+00 0.234E+01 0.164E+01   -.551E-02 -.144E-02 -.466E-03
   0.264E+01 -.151E+02 -.151E+03   0.161E+00 0.170E+02 0.150E+03   -.277E+01 -.192E+01 0.521E+00   0.848E-03 0.472E-02 -.306E-02
   0.606E+00 -.259E+02 -.145E+03   -.304E+01 0.277E+02 0.143E+03   0.238E+01 -.173E+01 0.155E+01   -.430E-02 0.154E-02 -.191E-02
   0.612E+02 -.106E+03 0.173E+03   -.643E+02 0.108E+03 -.173E+03   0.318E+01 -.183E+01 -.454E+00   -.118E-01 0.101E-02 -.492E-03
   -.169E+02 -.181E+02 -.267E+03   0.169E+02 0.152E+02 0.269E+03   -.115E+00 0.286E+01 -.206E+01   -.462E-03 -.596E-02 0.533E-02
   -.800E+02 -.548E+01 -.105E+03   0.828E+02 0.579E+01 0.107E+03   -.296E+01 -.236E+00 -.142E+01   0.189E-02 -.964E-02 -.532E-02
   -.427E+02 0.361E+02 0.233E+03   0.443E+02 -.371E+02 -.237E+03   -.161E+01 0.980E+00 0.382E+01   0.746E-02 0.116E-02 0.207E-02
   -.204E+03 0.388E+00 0.329E+03   0.233E+03 0.121E+02 -.347E+03   -.293E+02 -.126E+02 0.181E+02   0.409E-02 0.256E-02 -.222E-02
   0.117E+03 -.175E+03 -.257E+03   -.146E+03 0.191E+03 0.272E+03   0.283E+02 -.158E+02 -.144E+02   -.689E-03 0.545E-02 0.120E-02
   0.221E+02 0.104E+03 0.484E+03   -.194E+02 -.125E+03 -.515E+03   -.283E+01 0.215E+02 0.309E+02   0.114E-01 0.123E-02 0.128E-01
   -.274E+02 0.786E+02 0.491E+03   0.246E+02 -.992E+02 -.522E+03   0.278E+01 0.205E+02 0.312E+02   -.230E-03 -.332E-03 0.531E-02
   0.189E+03 -.854E+02 -.511E+02   -.217E+03 0.106E+03 0.503E+02   0.279E+02 -.207E+02 0.822E+00   0.298E-02 0.127E-01 -.247E-02
   -.124E+03 -.331E+02 0.296E+03   0.151E+03 0.319E+02 -.321E+03   -.273E+02 0.124E+01 0.251E+02   0.549E-02 0.273E-02 -.262E-02
   -.955E+01 -.585E+02 -.104E+03   0.988E+01 0.634E+02 0.107E+03   -.318E+00 -.494E+01 -.352E+01   -.317E-02 -.261E-02 -.101E-02
   0.130E+02 0.473E+01 -.199E+03   -.125E+02 -.679E+01 0.210E+03   -.476E+00 0.201E+01 -.111E+02   0.326E-02 -.216E-02 -.192E-02
   0.584E+02 0.260E+01 -.360E+03   -.423E+02 0.358E+01 0.389E+03   -.160E+02 -.616E+01 -.292E+02   0.373E-02 0.289E-02 0.370E-02
   -.391E+01 0.839E+02 -.724E+02   -.153E+02 -.838E+02 0.841E+02   0.192E+02 -.152E+00 -.118E+02   -.465E-02 0.880E-03 -.879E-04
   -.292E+02 0.103E+03 0.108E+03   0.347E+02 -.138E+03 -.116E+03   -.552E+01 0.341E+02 0.782E+01   -.575E-03 -.491E-02 0.251E-02
   0.254E+01 0.952E+02 0.130E+03   -.522E+01 -.128E+03 -.137E+03   0.265E+01 0.329E+02 0.779E+01   0.458E-02 -.429E-02 0.511E-02
   0.322E+02 0.213E+01 -.418E+03   -.569E+02 0.686E+01 0.440E+03   0.247E+02 -.902E+01 -.215E+02   -.407E-02 0.304E-02 0.100E-02
   0.265E+01 0.109E+03 -.115E+03   0.138E+02 -.110E+03 0.134E+03   -.164E+02 0.176E+01 -.191E+02   0.635E-02 0.614E-02 0.577E-02
   0.310E+02 -.718E+01 0.150E+03   -.350E+02 0.487E+01 -.152E+03   0.404E+01 0.231E+01 0.189E+01   -.416E-02 0.179E-02 0.764E-03
   0.237E+02 0.963E+02 0.209E+03   -.257E+02 -.998E+02 -.212E+03   0.212E+01 0.361E+01 0.286E+01   -.116E-01 0.594E-02 0.104E-01
   -.186E+03 -.962E+02 -.608E+02   0.215E+03 0.115E+03 0.609E+02   -.296E+02 -.192E+02 -.128E+00   -.711E-02 0.371E-02 0.141E-02
   0.123E+03 0.528E+00 0.222E+03   -.152E+03 -.262E+01 -.243E+03   0.291E+02 0.209E+01 0.203E+02   -.589E-02 0.305E-02 -.182E-02
   -.429E+02 0.106E+03 0.532E+03   0.531E+02 -.127E+03 -.561E+03   -.103E+02 0.208E+02 0.287E+02   0.495E-02 -.494E-02 -.420E-02
   0.123E+02 0.235E+03 0.509E+03   -.127E+02 -.266E+03 -.527E+03   0.178E+00 0.313E+02 0.182E+02   -.920E-02 -.557E-03 0.448E-03
   0.198E+03 0.180E+02 0.255E+03   -.228E+03 -.464E+01 -.269E+03   0.301E+02 -.134E+02 0.133E+02   -.294E-02 -.134E-02 -.929E-03
   -.908E+02 -.188E+03 -.347E+03   0.116E+03 0.205E+03 0.367E+03   -.251E+02 -.163E+02 -.193E+02   0.499E-03 0.124E-02 -.810E-03
   -.263E+01 -.335E+02 0.101E+03   0.332E+01 0.359E+02 -.109E+03   -.691E+00 -.235E+01 0.826E+01   0.205E-02 0.338E-02 0.831E-02
   -.191E+02 -.218E+02 -.321E+03   0.191E+02 0.242E+02 0.332E+03   0.499E-01 -.247E+01 -.111E+02   -.730E-02 -.242E-02 -.548E-02
   -.239E+03 -.307E+02 -.245E+03   0.269E+03 0.467E+02 0.252E+03   -.302E+02 -.160E+02 -.758E+01   -.460E-02 -.486E-02 -.612E-03
   0.178E+03 -.188E+03 0.429E+03   -.207E+03 0.204E+03 -.441E+03   0.291E+02 -.153E+02 0.113E+02   -.144E-01 -.766E-02 0.124E-02
   -.366E+02 0.809E+02 -.495E+03   0.440E+02 -.103E+03 0.525E+03   -.738E+01 0.217E+02 -.304E+02   -.212E-02 -.750E-03 0.379E-02
   -.268E+02 0.419E+02 -.529E+03   0.255E+02 -.602E+02 0.562E+03   0.124E+01 0.183E+02 -.333E+02   0.243E-02 0.176E-02 0.265E-02
   0.179E+03 -.162E+03 0.220E+03   -.200E+03 0.188E+03 -.230E+03   0.208E+02 -.259E+02 0.105E+02   -.304E-02 0.121E-02 0.185E-02
   -.162E+03 -.149E+02 -.241E+03   0.193E+03 0.162E+02 0.258E+03   -.319E+02 -.137E+01 -.169E+02   0.383E-03 -.158E-01 -.130E-01
   -.439E+02 -.558E+01 0.655E+02   0.467E+02 0.652E+01 -.692E+02   -.278E+01 -.959E+00 0.364E+01   0.770E-02 -.599E-02 -.147E-02
   0.686E+02 -.265E+02 -.899E+03   -.703E+02 0.384E+02 0.919E+03   0.151E+01 -.120E+02 -.201E+02   0.127E-01 0.460E-02 0.153E-02
   -.770E+01 -.191E+03 -.172E+03   0.100E+02 0.215E+03 0.159E+03   -.232E+01 -.243E+02 0.129E+02   -.239E-03 -.333E-02 -.155E-02
   0.275E+02 0.208E+03 -.403E+03   -.325E+02 -.260E+03 0.432E+03   0.497E+01 0.517E+02 -.287E+02   -.189E-04 -.180E-02 -.256E-02
   0.127E+02 -.498E+02 0.173E+02   0.568E-13 0.284E-12 -.341E-12   -.127E+02 0.498E+02 -.173E+02   -.192E-01 0.929E-02 0.480E-01

 POSITION                                       TOTAL-FORCE (eV/Angst)
     -0.03047      2.27953      5.88789         0.037051      0.032348      0.043446
      1.13612      4.42839      6.13001        -0.014099      0.074631      0.066393
     -1.24489      4.29052      5.88914         0.054938      0.064536      0.073096
      5.42175      0.61625      7.27229        -0.000001     -0.001208      0.037324
      3.32852      4.64849      5.74831         0.024105      0.012588      0.026162
      1.16229      0.55627      6.55030        -0.026711      0.054777     -0.058127
     -3.59436      7.70096      7.22296         0.030402      0.006380      0.028640
     -2.08031      9.60221      7.51283        -0.008086     -0.046800      0.001256
     -4.37663      9.88501      7.62081         0.009857      0.026481      0.017680
      2.27421      5.89477      7.54028        -0.032418      0.072291      0.041454
      0.10494      9.51051      7.16419         0.029088     -0.001081      0.029646
     -2.63288      5.74223      6.93296        -0.005771      0.046089      0.005811
      6.67325      2.35050      6.56956        -0.008073     -0.110440      0.054883
      7.53908      4.19238      5.10715         0.030155     -0.000478      0.011937
      5.47497      4.33281      6.11776         0.079112      0.087209      0.085093
     11.82669      0.39140      6.75270        -0.011353      0.009844      0.000312
      9.69949      4.18565      5.08235         0.137836      0.055870     -0.013906
      7.78809      0.61581      7.42249         0.011864     -0.065565      0.066632
      3.45415      7.59998      8.34697        -0.003191      0.048120     -0.043149
      4.46898      9.79384      8.09824        -0.023991      0.013658     -0.010522
      2.15618      9.62918      7.98078         0.000158     -0.032631     -0.003260
      8.35663      6.11835      5.79129         0.079727      0.039003      0.022064
      6.61449     10.11394      8.35335        -0.049721     -0.003493      0.021600
      4.63094      5.93889      7.40705        -0.059590      0.076004      0.061668
     -0.01428      3.65520      5.88672        -0.001247     -0.060597      0.019364
      1.14766      1.66084      5.83490         0.040150     -0.069971      0.013649
     -2.11653     10.92116      7.74628         0.027388      0.016339      0.004790
      4.45888      4.14218      5.29665        -0.078900      0.036104     -0.033354
      2.15029      4.21165      5.32696        -0.027628      0.002025     -0.026775
      5.44885      1.89291      6.95610         0.059465      0.024887     -0.047136
     -4.35431     10.68531      6.56831         0.013849     -0.054696      0.013404
      0.04190      0.23266      7.33770         0.009500     -0.035813      0.016349
     -3.30673      8.98898      7.66408         0.032180     -0.044775     -0.032251
     -2.77248      6.77239      7.74443         0.021111      0.041087      0.006514
      1.10961      5.27007      7.23078        -0.023170     -0.093190     -0.102750
      1.25034      8.87053      7.35994         0.018723     -0.026076     -0.020941
     -1.04580      8.83818      7.12977        -0.039477      0.014708     -0.017167
      2.31391      6.84624      8.45204        -0.021239     -0.026497     -0.005745
     -1.48493      5.05865      6.99022         0.049213     -0.002857      0.021591
      9.48317      5.27482      5.98186         0.022278     -0.010590     -0.006027
      6.60406      3.51891      5.81783         0.020640      0.074216     -0.074487
      7.85702      1.87057      6.99766        -0.070587      0.040524     -0.088969
      4.33461     10.51903      6.98202         0.013054      0.001832      0.036199
     -2.04976      3.98723      4.90108        -0.083834     -0.030050     -0.083956
      8.63668      3.56434      4.64621        -0.163325      0.046021      0.045185
     11.77931      1.49188      6.02812        -0.043745     -0.012772     -0.021204
      8.68344     -0.03798      8.15526        -0.025527      0.042400     -0.030270
      0.11103     10.87552      7.10022         0.003634      0.018587     -0.030432
      3.32762      8.98614      8.40358         0.015933     -0.035366     -0.055427
      4.65211      7.08762      8.07382         0.008136     -0.077473     -0.019926
      7.37004      5.57481      5.13247        -0.049751     -0.114178     -0.021500
     -5.22901      9.72706      8.62678         0.053057     -0.006963     -0.024865
      5.49127      9.67140      8.92633        -0.004240      0.005592     -0.014645
      8.46580      7.36409      6.30665        -0.017010     -0.035442      0.031861
      5.66223      5.16113      7.15578         0.017494     -0.070882     -0.072660
      3.38814      5.53728      6.84711         0.013682     -0.021034     -0.058978
     -0.33350      6.28643      8.30749        -0.076265      0.009176      0.059269
     -0.25168      6.45879     11.49088         0.004147      0.055163     -0.009041
     -0.34710      5.46010     12.04229         0.001023     -0.057574      0.064199
    total drift:                               -0.001830      0.000305     -0.004668

  FREE ENERGIE OF THE ION-ELECTRON SYSTEM (eV)
  free  energy   TOTEN  =      -494.05178784 eV

  energy  without entropy=     -494.05178784  energy(sigma->0) =     -494.05178784

 total charge

[...]

 magnetization (x)

# of ion       s       p       d       tot
    1       -0.000  -0.000   0.000  -0.000
    2       -0.000  -0.000   0.000  -0.000
    3        0.000   0.000   0.000   0.000
    4        0.000   0.000   0.000   0.000
    5       -0.000  -0.000   0.000  -0.000
    6        0.000   0.000   0.000   0.000
    7       -0.000   0.000   0.000   0.000
    8        0.000   0.000   0.000   0.000
    9       -0.000   0.000   0.000  -0.000
   10       -0.000  -0.000   0.000  -0.000
   11        0.000  -0.000   0.000  -0.000
   12       -0.000  -0.000   0.000  -0.000
   13        0.000   0.000   0.000   0.000
   14        0.000   0.000   0.000   0.000
   15       -0.000  -0.000   0.000  -0.000
   16        0.000  -0.000   0.000  -0.000
   17        0.000   0.000   0.000   0.000
   18        0.000   0.000   0.000   0.000
   19       -0.000  -0.000   0.000  -0.000
   20       -0.000  -0.000   0.000  -0.000
   21        0.000   0.000   0.000   0.000
   22        0.000   0.000   0.000   0.000
   23        0.000   0.000   0.000   0.000
   24       -0.000  -0.000   0.000  -0.000
   25        0.000   0.000   0.000   0.000
   26       -0.000  -0.000   0.000  -0.000
   27        0.000   0.000   0.000   0.000
   28        0.000   0.000   0.000   0.000
   29        0.000   0.000   0.000   0.000
   30       -0.000   0.000   0.000   0.000
   31        0.000  -0.000   0.000  -0.000
   32       -0.000  -0.000   0.000  -0.000
   33        0.000   0.000   0.000   0.000
   34        0.000  -0.000   0.000   0.000
   35        0.000   0.000   0.000   0.000
   36       -0.000   0.000   0.000   0.000
   37       -0.000  -0.000   0.000  -0.000
   38        0.000   0.000   0.000   0.000
   39        0.000   0.000   0.000   0.000
   40        0.000   0.000   0.000   0.000
   41       -0.000  -0.000   0.000  -0.000
   42       -0.000   0.000   0.000   0.000
   43        0.000  -0.000   0.000  -0.000
   44       -0.000  -0.000   0.000  -0.000
   45        0.000  -0.000   0.000  -0.000
   46        0.000  -0.000   0.000  -0.000
   47        0.000   0.000   0.000   0.000
   48        0.000   0.000   0.000   0.000
   49        0.000   0.000   0.000   0.000
   50        0.000   0.000   0.000   0.000
   51        0.000   0.000   0.000   0.000
   52        0.000  -0.000   0.000  -0.000
   53        0.000  -0.000   0.000  -0.000
   54        0.000   0.000   0.000   0.000
   55       -0.000  -0.000   0.000  -0.000
   56       -0.000  -0.000   0.000  -0.000
   57       -0.000  -0.000  -0.000  -0.000
   58       -0.000  -0.000   0.000  -0.000
   59        0.000   0.000   0.000   0.000
tot          0.000   0.000  -0.000   0.000

 BZINTS: Fermi energy: -1.995749;280.000000 electrons
         Band energy:***********;  BLOECHL correction:  0.000000