 vasp.5.4.4.18Apr17-6-g9f103f2a35 (build Nov  8 2022 18:58:45) complex
 executed on             LinuxGNU date 2023.04.13  15:54:02

 INCAR:
 POTCAR:    PAW_PBE C 08Apr2002
 POTCAR:    PAW_PBE N 08Apr2002
 POTCAR:    PAW_PBE Ge_d 03Jul2007
 POTCAR:    PAW_PBE C 08Apr2002
 POTCAR:    PAW_PBE O 08Apr2002
 POTCAR:    PAW_PBE C 08Apr2002
   VRHFIN =C: s2p2

   TITEL  = PAW_PBE C 08Apr2002
   POMASS =   12.011; ZVAL   =    4.000    mass and valenz
   ENMAX  =  400.000; ENMIN  =  300.000 eV

[...]

   TITEL  = PAW_PBE Ge_d 03Jul2007
   POMASS =   72.610; ZVAL   =   14.000    mass and valenz
   ENMAX  =  310.294; ENMIN  =  232.720 eV

[...]

   TITEL  = PAW_PBE O 08Apr2002
   POMASS =   16.000; ZVAL   =    6.000    mass and valenz
   ENMAX  =  400.000; ENMIN  =  300.000 eV

  PAW_PBE C 08Apr2002                   :
  PAW_PBE N 08Apr2002                   :
  PAW_PBE Ge_d 03Jul2007                :
  PAW_PBE C 08Apr2002                   :
  PAW_PBE O 08Apr2002                   :

 POSCAR: POSCAR-c3n4
  positions in cartesian coordinates
 exchange correlation table for  LEXCH =        8
   RHO(1)=    0.500       N(1)  =     2000
   RHO(2)=  100.500       N(2)  =     4000

 ion  position               nearest neighbor table
   1  0.106  0.214  0.436-  26 1.29  46 1.29  25 1.36
   2  0.288  0.399  0.443-  29 1.27  35 1.33  25 1.38
   3  0.104  0.392  0.437-  44 1.27  39 1.32  25 1.37
   4  0.447  0.064  0.516-  30 1.27  27 1.28  48 1.35
   5  0.453  0.401  0.422-  28 1.28  29 1.29  56 1.37
   6  0.112  0.053  0.459-  26 1.27  31 1.28  32 1.34
   7  0.096  0.712  0.494-  54 1.28  34 1.30  33 1.35
   8  0.284  0.890  0.511-  27 1.28  37 1.30  33 1.36
   9  0.109  0.895  0.508-  31 1.27  52 1.29  33 1.38
  10  0.448  0.548  0.512-  38 1.27  56 1.30  35 1.30
  11  0.445  0.885  0.499-  37 1.28  36 1.29  48 1.33
  12  0.087  0.542  0.491-  34 1.27  40 1.29  39 1.30
  13  0.616  0.223  0.483-  42 1.30  30 1.30  41 1.35
  14  0.780  0.390  0.410-  45 1.29  51 1.31  41 1.35
  15  0.610  0.394  0.445-  28 1.29  55 1.29  41 1.39
  16  0.940  0.052  0.471-  46 1.27  43 1.28  32 1.34
  17  0.941  0.387  0.404-  45 1.27  44 1.29  40 1.37
  18  0.623  0.066  0.522-  42 1.28  47 1.29  48 1.35
  19  0.613  0.711  0.541-  50 1.27  38 1.31  49 1.35
  20  0.790  0.897  0.533-  43 1.27  53 1.29  49 1.39
  21  0.609  0.892  0.531-  47 1.28  36 1.29  49 1.38
  22  0.938  0.563  0.430-  51 1.26  54 1.29  40 1.36
  23  0.954  0.902  0.545-  52 1.29  53 1.29  32 1.34
  24  0.621  0.555  0.500-  55 1.26  50 1.28  56 1.36
  25  0.167  0.335  0.435-   1 1.36   3 1.37   2 1.38
  26  0.165  0.161  0.431-   6 1.27   1 1.29
  27  0.336  0.002  0.532-   8 1.28   4 1.28
  28  0.512  0.352  0.402-   5 1.28  15 1.29
  29  0.345  0.361  0.400-   2 1.27   5 1.29
  30  0.506  0.177  0.503-   4 1.27  13 1.30
  31  0.159  0.988  0.457-   9 1.27   6 1.28
  32  0.002  0.002  0.493-  16 1.34  23 1.34   6 1.34
  33  0.165  0.831  0.510-   7 1.35   8 1.36   9 1.38
  34  0.134  0.645  0.528-  12 1.27   7 1.30
  35  0.334  0.491  0.501-  10 1.30   2 1.33  57 1.98
  36  0.503  0.831  0.500-  11 1.29  21 1.29
  37  0.333  0.829  0.489-  11 1.28   8 1.30
  38  0.499  0.648  0.555-  10 1.27  19 1.31
  39  0.142  0.484  0.495-  12 1.30   3 1.32  57 1.99
  40  0.988  0.496  0.446-  12 1.29  22 1.36  17 1.37
  41  0.667  0.330  0.439-  13 1.35  14 1.35  15 1.39
  42  0.680  0.178  0.505-  18 1.28  13 1.30
  43  0.827  0.986  0.478-  20 1.27  16 1.28
  44  0.011  0.348  0.389-   3 1.27  17 1.29
  45  0.830  0.330  0.389-  17 1.27  14 1.29
  46  0.993  0.161  0.445-  16 1.27   1 1.29
  47  0.669  0.005  0.549-  21 1.28  18 1.29
  48  0.505  0.004  0.508-  11 1.33  18 1.35   4 1.35
  49  0.668  0.832  0.544-  19 1.35  21 1.38  20 1.39
  50  0.675  0.666  0.522-  19 1.27  24 1.28
  51  0.832  0.507  0.406-  22 1.26  14 1.31
  52  0.016  0.853  0.559-  23 1.29   9 1.29
  53  0.849  0.860  0.576-  20 1.29  23 1.29
  54  0.004  0.677  0.444-   7 1.28  22 1.29
  55  0.668  0.491  0.494-  24 1.26  15 1.29
  56  0.506  0.502  0.477-  10 1.30  24 1.36   5 1.37
  57  0.287  0.593  0.568-  35 1.98  39 1.99
  58  0.287  0.593  0.966-  59 1.11
  59  0.232  0.530  0.023-  58 1.11

IMPORTANT INFORMATION: All symmetrisations will be switched off!
NOSYMM: (Re-)initialisation of all symmetry stuff for point group C_1.

 KPOINTS: K-Points

Automatic generation of k-mesh.
Space group operators:
 irot       det(A)        alpha          n_x          n_y          n_z        tau_x        tau_y        tau_z
    1     1.000000     0.000000     1.000000     0.000000     0.000000     0.000000     0.000000     0.000000

 Subroutine IBZKPT returns following result:

 Found      5 irreducible k-points:

 Following reciprocal coordinates:
            Coordinates               Weight
  0.000000  0.000000  0.000000      1.000000
  0.333333  0.000000  0.000000      2.000000
  0.000000  0.333333  0.000000      2.000000
  0.333333  0.333333  0.000000      2.000000
 -0.333333  0.333333  0.000000      2.000000

 Following cartesian coordinates:
            Coordinates               Weight
  0.000000  0.000000  0.000000      1.000000
  0.024277  0.014368  0.000000      2.000000
  0.000396  0.028736  0.000000      2.000000
  0.024673  0.043104  0.000000      2.000000
 -0.023881  0.014368  0.000000      2.000000

 TETIRR: Found     24 inequivalent tetrahedra from       54

 SYSTEM =  unknown system
 POSCAR =  POSCAR-c3n4

 Startparameter for this run:
   NWRITE =      2    write-flag & timer
   PREC   = normal    normal or accurate (medium, high low for compatibility)
   ISTART =      0    job   : 0-new  1-cont  2-samecut
   ICHARG =      2    charge: 1-file 2-atom 10-const
   ISPIN  =      2    spin polarized calculation?
   LNONCOLLINEAR =      F non collinear calculations
   LSORBIT =      F    spin-orbit coupling
   INIWAV =      1    electr: 0-lowe 1-rand  2-diag
   LASPH  =      F    aspherical Exc in radial PAW
   METAGGA=      F    non-selfconsistent MetaGGA calc.

 Electronic Relaxation 1
   ENCUT  =  440.0 eV  32.34 Ry    5.69 a.u.  22.73 22.31 24.63*2*pi/ulx,y,z
   ENINI  =  440.0     initial cutoff
   ENAUG  =  644.9 eV  augmentation charge cutoff
   NELM   =    100;   NELMIN=  2; NELMDL= -5     # of ELM steps
   EDIFF  = 0.1E-03   stopping-criterion for ELM
   LREAL  =      F    real-space projection
   NLSPLINE    = F    spline interpolate recip. space projectors
   LCOMPAT=      F    compatible to vasp.4.4
   GGA_COMPAT  = T    GGA compatible to vasp.4.4-vasp.4.6
   LMAXPAW     = -100 max onsite density
   LMAXMIX     =    2 max onsite mixed and CHGCAR
   VOSKOWN=      0    Vosko Wilk Nusair interpolation
   ROPT   =    0.00000   0.00000   0.00000   0.00000
   ROPT   =    0.00000
 Ionic relaxation
   EDIFFG = -.1E-01   stopping-criterion for IOM
   NSW    =      0    number of steps for IOM
   NBLOCK =      1;   KBLOCK =      1    inner block; outer block
   IBRION =     -1    ionic relax: 0-MD 1-quasi-New 2-CG
   NFREE  =      0    steps in history (QN), initial steepest desc. (CG)
   ISIF   =      2    stress and relaxation
   IWAVPR =     10    prediction:  0-non 1-charg 2-wave 3-comb
   ISYM   =      0    0-nonsym 1-usesym 2-fastsym
   LCORR  =      T    Harris-Foulkes like correction to forces

   POTIM  = 0.5000    time-step for ionic-motion
   TEIN   =    0.0    initial temperature
   TEBEG  =    0.0;   TEEND  =   0.0 temperature during run
   SMASS  =  -3.00    Nose mass-parameter (am)
   estimated Nose-frequenzy (Omega)   =  0.10E-29 period in steps =****** mass=  -0.404E-26a.u.
   SCALEE = 1.0000    scale energy and forces
   NPACO  =    256;   APACO  = 16.0  distance and # of slots for P.C.
   PSTRESS=    0.0 pullay stress

  Mass of Ions in am
   POMASS =  12.01 14.00 72.61 12.01 16.00
  Ionic Valenz
   ZVAL   =   4.00  5.00 14.00  4.00  6.00
  Atomic Wigner-Seitz radii
  virtual crystal weights
   VCA    =   1.00  1.00  1.00  1.00  1.00
   NELECT =     280.0000    total number of electrons
   NUPDOWN=      -1.0000    fix difference up-down

 DOS related values:
   EMIN   = -14.00;   EMAX   =  6.00  energy-range for DOS
   EFERMI =   0.00
   ISMEAR =    -5;   SIGMA  =   0.20  broadening in eV -4-tet -1-fermi 0-gaus

 Electronic relaxation 2 (details)
   IALGO  =     38    algorithm
   LDIAG  =      T    sub-space diagonalisation (order eigenvalues)
   LSUBROT=      F    optimize rotation matrix (better conditioning)
   TURBO    =      0    0=normal 1=particle mesh
   IRESTART =      0    0=no restart 2=restart with 2 vectors
   NREBOOT  =      0    no. of reboots
   NMIN     =      0    reboot dimension
   EREF     =   0.00    reference energy to select bands
   IMIX   =      4    mixing-type and parameters
     AMIX     =   0.25;   BMIX     =  0.00
     AMIX_MAG =   1.00;   BMIX_MAG =  0.00
     AMIN     =   0.10
     WC   =   100.;   INIMIX=   1;  MIXPRE=   1;  MAXMIX= -45

 Intra band minimization:
   WEIMIN = 0.0000     energy-eigenvalue tresh-hold
   EBREAK =  0.15E-06  absolut break condition
   DEPER  =   0.30     relativ break condition

   TIME   =   0.40     timestep for ELM

  volume/ion in A,a.u.               =      36.12       243.75
  Fermi-wavevector in a.u.,A,eV,Ry     =   0.832264  1.572750  9.424249  0.692663
  Thomas-Fermi vector in A             =   1.945290

 Write flags
   LWAVE        =      F    write WAVECAR
   LDOWNSAMPLE  =      F    k-point downsampling of WAVECAR
   LCHARG       =      F    write CHGCAR
   LVTOT        =      F    write LOCPOT, total local potential
   LVHAR        =      F    write LOCPOT, Hartree potential only
   LELF         =      F    write electronic localiz. function (ELF)
   LORBIT       =     11    0 simple, 1 ext, 2 COOP (PROOUT), +10 PAW based schemes

 Dipole corrections
   LMONO  =      F    monopole corrections only (constant potential shift)
   LDIPOL =      F    correct potential (dipole corrections)
   IDIPOL =      0    1-x, 2-y, 3-z, 4-all directions
   EPSILON=  1.0000000 bulk dielectric constant

 Exchange correlation treatment:
   GGA     =    --    GGA type
   VOSKOWN=      0    Vosko Wilk Nusair interpolation
   LHFCALC =     F    Hartree Fock is set to
   LHFONE  =     F    Hartree Fock one center treatment
   AEXX    =    0.0000 exact exchange contribution

 Linear response parameters
   LEPSILON=     F    determine dielectric tensor
   LRPA    =     F    only Hartree local field effects (RPA)
   LNABLA  =     F    use nabla operator in PAW spheres
   LVEL    =     F    velocity operator in full k-point grid
   LINTERFAST=   F  fast interpolation
   KINTER  =     0    interpolate to denser k-point grid
   CSHIFT  =0.1000    complex shift for real part using Kramers Kronig
   OMEGAMAX=  -1.0    maximum frequency
   DEG_THRESHOLD= 0.2000000E-02 threshold for treating states as degnerate
   RTIME   =   -0.100 relaxation time in fs
  (WPLASMAI=    0.000 imaginary part of plasma frequency in eV, 0.658/RTIME)
   DFIELD  = 0.0000000 0.0000000 0.0000000 field for delta impulse in time

 Orbital magnetization related:
   ORBITALMAG=     F  switch on orbital magnetization
   LCHIMAG   =     F  perturbation theory with respect to B field
[...]
  Total     155.24777   139.01146    27.18207    -2.20257     5.60982     3.44091
  in kB     116.71755   104.51086    20.43588    -1.65593     4.21754     2.58692

 VOLUME and BASIS-vectors are now :
  energy-cutoff  :      440.00
  volume of cell :     2131.08
      direct lattice vectors                 reciprocal lattice vectors
    13.289687265 -0.183110855  0.000000000     0.075864968  0.044900119 -0.000000000
    -6.644843633 11.227383354  0.000000000     0.001237305  0.089800238 -0.000000000
     0.000000000  0.000000000 14.400000000    -0.000000000 -0.000000000  0.069444444

  length of vectors
    13.290948694 13.046382023 14.400000000     0.088156191  0.089808762  0.069444444

 FORCES acting on ions
    electron-ion (+dipol)            ewald-force                    non-local-force                 convergence-correction
   -.596E+01 0.123E+02 0.117E+03   0.617E+01 -.147E+02 -.116E+03   -.238E+00 0.349E+01 -.174E+01   0.817E-02 0.549E-02 0.699E-02
   -.164E+01 0.322E+02 0.126E+03   0.344E+01 -.324E+02 -.126E+03   -.300E+01 0.391E+00 0.200E+00   0.677E-02 0.135E-02 0.400E-02
   -.130E+02 0.349E+02 0.124E+03   0.114E+02 -.351E+02 -.124E+03   0.273E+01 0.320E+00 0.560E+00   0.189E-01 -.186E-03 0.445E-02
   0.704E+02 -.589E+02 -.880E+02   -.734E+02 0.603E+02 0.885E+02   0.291E+01 -.156E+01 -.251E+00   0.306E-02 -.107E-01 0.383E-02
   -.175E+02 0.559E+02 0.200E+03   0.179E+02 -.587E+02 -.202E+03   -.430E+00 0.311E+01 0.177E+01   -.108E-01 0.116E-01 0.955E-02
   -.657E+02 -.172E+02 0.964E+02   0.686E+02 0.186E+02 -.977E+02   -.292E+01 -.145E+01 0.111E+01   -.104E-01 0.227E-02 0.558E-02
   0.440E+02 -.302E+02 -.351E+02   -.444E+02 0.286E+02 0.348E+02   0.542E+00 0.245E+01 0.838E+00   0.310E-02 0.827E-02 0.154E-02
   0.276E+02 -.184E+02 -.495E+02   -.256E+02 0.195E+02 0.492E+02   -.278E+01 -.181E+01 0.413E+00   -.342E-02 -.535E-02 0.428E-02
   -.719E+01 -.155E+01 -.607E+02   0.495E+01 0.239E+01 0.607E+02   0.310E+01 -.157E+01 0.280E+00   0.700E-03 -.160E-03 0.128E-02
   -.281E+02 0.186E+02 -.726E+02   0.268E+02 -.168E+02 0.739E+02   0.107E+01 -.182E+01 -.116E+01   0.329E-02 -.265E-02 -.284E-02
   -.374E+01 0.190E+02 0.485E+02   0.372E+01 -.225E+02 -.482E+02   0.722E-01 0.323E+01 -.645E+00   0.538E-02 -.230E-02 0.643E-02
   0.359E+02 0.169E+02 -.671E+02   -.345E+02 -.150E+02 0.683E+02   -.122E+01 -.220E+01 -.808E+00   0.895E-02 0.307E-02 0.213E-02
   -.362E+01 -.175E+02 -.154E+02   0.382E+01 0.149E+02 0.157E+02   -.115E+00 0.339E+01 -.644E+00   -.622E-02 -.110E-03 0.516E-03
   0.416E+02 0.304E+02 0.194E+03   -.397E+02 -.294E+02 -.193E+03   -.288E+01 -.138E+01 -.768E+00   -.705E-02 0.102E-02 0.408E-02
   -.146E+02 0.236E+02 0.871E+02   0.126E+02 -.230E+02 -.867E+02   0.304E+01 -.131E+01 -.516E+00   -.183E-01 0.732E-02 0.331E-02
   0.679E+02 -.158E+02 0.662E+02   -.710E+02 0.172E+02 -.669E+02   0.295E+01 -.152E+01 0.573E+00   0.102E-01 -.586E-02 0.626E-02
   0.644E+01 0.794E+02 0.213E+03   -.623E+01 -.823E+02 -.215E+03   -.128E-01 0.300E+01 0.173E+01   0.119E-01 0.476E-02 0.360E-02
   -.670E+02 -.618E+02 -.998E+02   0.701E+02 0.633E+02 0.101E+03   -.289E+01 -.153E+01 -.450E+00   -.193E-02 -.157E-01 0.453E-02
   -.374E+02 -.289E+02 -.142E+03   0.373E+02 0.276E+02 0.142E+03   -.275E+00 0.244E+01 0.924E+00   -.402E-02 -.125E-02 -.278E-02
   0.107E+02 -.263E+01 -.110E+03   -.858E+01 0.343E+01 0.110E+03   -.316E+01 -.148E+01 0.527E+00   -.677E-02 -.635E-02 0.780E-03
   -.306E+02 -.135E+02 -.896E+02   0.288E+02 0.146E+02 0.891E+02   0.279E+01 -.191E+01 0.892E+00   0.846E-02 -.119E-01 0.439E-02
   0.778E+02 -.725E+02 0.138E+03   -.804E+02 0.749E+02 -.138E+03   0.294E+01 -.206E+01 0.162E+00   0.785E-02 0.988E-02 0.448E-02
   -.108E+02 0.450E+02 -.191E+03   0.109E+02 -.485E+02 0.193E+03   -.468E-01 0.346E+01 -.148E+01   -.534E-02 0.100E-01 -.579E-02
   -.889E+02 -.264E+02 -.616E+02   0.919E+02 0.275E+02 0.629E+02   -.321E+01 -.966E+00 -.114E+01   -.193E-01 -.139E-02 -.136E-02
   -.153E+02 0.422E+02 0.166E+03   0.158E+02 -.432E+02 -.169E+03   -.345E+00 0.112E+01 0.271E+01   0.206E-01 0.353E-02 0.911E-02
   -.205E+03 -.315E+02 0.227E+03   0.239E+03 0.494E+02 -.241E+03   -.309E+02 -.165E+02 0.124E+02   -.176E-02 0.907E-02 0.765E-02
   0.166E+03 -.162E+03 -.243E+03   -.198E+03 0.180E+03 0.256E+03   0.305E+02 -.162E+02 -.109E+02   -.301E-02 -.529E-02 0.651E-02
   0.242E+01 0.181E+03 0.402E+03   0.323E+00 -.212E+03 -.427E+03   -.240E+01 0.288E+02 0.223E+02   -.186E-01 0.984E-02 0.477E-02
   -.416E+02 0.150E+03 0.422E+03   0.392E+02 -.179E+03 -.450E+03   0.228E+01 0.270E+02 0.250E+02   -.337E-03 0.911E-02 0.983E-02
   0.203E+03 -.105E+03 -.115E+03   -.235E+03 0.126E+03 0.116E+03   0.296E+02 -.197E+02 -.784E-01   -.143E-01 -.108E-02 0.434E-02
   -.153E+03 -.843E+02 0.259E+03   0.186E+03 0.945E+02 -.281E+03   -.300E+02 -.952E+01 0.195E+02   -.626E-02 0.207E-02 0.237E-02
   -.471E+01 -.404E+00 -.252E+02   0.496E+01 0.290E+00 0.264E+02   -.188E+00 0.458E-01 -.104E+01   -.362E-02 0.205E-02 0.302E-02
   0.187E+02 -.253E+02 -.992E+02   -.189E+02 0.261E+02 0.104E+03   0.224E+00 -.743E+00 -.401E+01   0.188E-02 0.974E-03 0.396E-02
   -.354E+00 -.655E+02 -.310E+03   0.236E+02 0.800E+02 0.336E+03   -.218E+02 -.134E+02 -.232E+02   0.151E-01 0.505E-02 0.496E-02
   0.787E+01 0.705E+02 -.785E+02   -.289E+02 -.663E+02 0.897E+02   0.191E+02 -.417E+01 -.105E+02   0.306E-02 0.957E-02 0.723E-02
   -.185E+02 0.118E+03 0.128E+03   0.216E+02 -.154E+03 -.139E+03   -.274E+01 0.337E+02 0.986E+01   0.706E-02 -.144E-01 0.804E-02
   0.558E+00 0.114E+03 0.142E+03   -.277E+01 -.150E+03 -.153E+03   0.188E+01 0.335E+02 0.995E+01   0.862E-02 -.107E-01 0.708E-02
   0.406E+02 -.639E+02 -.338E+03   -.686E+02 0.790E+02 0.358E+03   0.261E+02 -.139E+02 -.176E+02   -.861E-02 -.836E-02 -.438E-02
   -.189E+01 0.804E+02 -.112E+03   0.211E+02 -.769E+02 0.127E+03   -.175E+02 -.358E+01 -.142E+02   0.263E-01 0.110E-01 0.121E-01
   0.551E+02 0.194E+02 0.730E+02   -.598E+02 -.227E+02 -.728E+02   0.407E+01 0.286E+01 -.401E+00   0.143E-01 0.127E-01 0.962E-02
   0.156E+02 0.409E+02 0.151E+03   -.176E+02 -.426E+02 -.156E+03   0.194E+01 0.161E+01 0.408E+01   -.250E-01 0.403E-02 0.335E-02
   -.200E+03 -.110E+03 -.126E+03   0.232E+03 0.130E+03 0.127E+03   -.300E+02 -.188E+02 -.862E+00   0.778E-02 -.118E-01 0.951E-02
   0.157E+03 -.713E+02 0.202E+03   -.191E+03 0.811E+02 -.220E+03   0.311E+02 -.918E+01 0.167E+02   0.197E-02 -.128E-01 0.692E-02
   0.140E+02 0.174E+03 0.435E+03   -.909E+01 -.203E+03 -.460E+03   -.467E+01 0.279E+02 0.230E+02   0.216E-01 -.724E-02 -.273E-02
   0.667E+01 0.249E+03 0.364E+03   -.845E+01 -.286E+03 -.376E+03   0.135E+01 0.339E+02 0.108E+02   0.519E-02 -.156E-01 -.469E-02
   0.206E+03 -.327E+02 0.137E+03   -.240E+03 0.519E+02 -.143E+03   0.315E+02 -.177E+02 0.601E+01   0.112E-01 -.236E-02 0.830E-02
   -.151E+03 -.166E+03 -.298E+03   0.182E+03 0.184E+03 0.314E+03   -.291E+02 -.160E+02 -.140E+02   0.710E-02 -.189E-01 0.650E-02
   0.796E+00 -.364E+02 -.126E+02   -.685E+00 0.378E+02 0.101E+02   -.142E+00 -.115E+01 0.222E+01   0.257E-02 -.150E-01 0.594E-02
   -.182E+02 -.280E+02 -.192E+03   0.180E+02 0.301E+02 0.198E+03   0.144E+00 -.200E+01 -.536E+01   -.177E-02 -.442E-02 0.406E-03
   -.238E+03 -.696E+02 -.941E+02   0.271E+03 0.893E+02 0.952E+02   -.305E+02 -.183E+02 -.955E+00   -.129E-01 0.590E-03 -.270E-02
   0.189E+03 -.154E+03 0.309E+03   -.223E+03 0.171E+03 -.317E+03   0.309E+02 -.161E+02 0.673E+01   -.146E-01 0.167E-01 0.131E-02
   0.108E+01 0.156E+03 -.393E+03   0.384E+01 -.186E+03 0.418E+03   -.446E+01 0.283E+02 -.227E+02   -.294E-02 0.504E-02 -.522E-03
   -.371E+02 0.120E+03 -.442E+03   0.355E+02 -.148E+03 0.471E+03   0.143E+01 0.266E+02 -.261E+02   -.123E-01 0.256E-02 -.427E-02
   0.200E+03 -.135E+03 0.240E+03   -.227E+03 0.160E+03 -.253E+03   0.241E+02 -.226E+02 0.123E+02   0.449E-03 0.168E-01 0.170E-02
   -.178E+03 -.766E+02 -.191E+03   0.212E+03 0.861E+02 0.207E+03   -.320E+02 -.915E+01 -.141E+02   -.217E-01 0.675E-02 0.462E-02
   -.515E+02 0.223E+02 0.442E+02   0.548E+02 -.249E+02 -.468E+02   -.284E+01 0.218E+01 0.215E+01   -.123E-01 0.260E-02 0.215E-02
   0.465E+02 -.121E+03 -.998E+03   -.479E+02 0.139E+03 0.102E+04   0.125E+01 -.174E+02 -.214E+02   0.595E-01 -.729E-02 -.541E-01
   -.678E+02 -.155E+03 0.147E+03   0.766E+02 0.175E+03 -.170E+03   -.778E+01 -.176E+02 0.205E+02   0.114E-02 -.368E-03 -.278E-02
   0.567E+02 0.128E+03 -.802E+02   -.748E+02 -.169E+03 0.128E+03   0.170E+02 0.386E+02 -.448E+02   0.290E-02 0.148E-02 -.534E-02
   -.636E+01 -.249E+02 0.255E+02   0.426E-13 -.171E-12 -.284E-12   0.629E+01 0.249E+02 -.256E+02   0.616E-01 -.305E-02 0.139E+00

 POSITION                                       TOTAL-FORCE (eV/Angst)
     -0.01436      2.37791      6.28394        -0.021133      1.175216     -0.386354
      1.17178      4.42330      6.38033        -1.259092      0.167708      0.013144
     -1.22389      4.37958      6.29579         1.195786      0.152911      0.131863
      5.52065      0.63483      7.42484        -0.141990     -0.078590      0.255694
      3.34853      4.42210      6.08322        -0.045551      0.244597     -0.250412
      1.13846      0.57161      6.60386         0.094447     -0.039200     -0.150135
     -3.44967      7.97525      7.11103         0.230632      0.928775      0.560301
     -2.13555      9.94102      7.36015        -0.886129     -0.815144      0.141212
     -4.49554     10.03267      7.31586         0.921630     -0.755606      0.205971
      2.30961      6.07363      7.37027        -0.281583     -0.094961      0.175221
      0.03783      9.85693      7.18402         0.054969     -0.313323     -0.307579
     -2.44721      6.07050      7.06452         0.214322     -0.230772      0.408773
      6.70710      2.39006      6.94980         0.086404      0.891136     -0.443329
      7.77973      4.23225      5.90116        -1.047648     -0.454048     -0.244092
      5.49151      4.31545      6.41350         1.076553     -0.668848     -0.132145
     12.13837      0.41513      6.77694        -0.146964     -0.100939     -0.143675
      9.93343      4.16745      5.81473         0.211858      0.145594     -0.319617
      7.84083      0.62227      7.51611         0.234526     -0.018037      0.256142
      3.42391      7.87245      7.79284        -0.397312      1.150538      0.552912
      4.53460      9.92940      7.67233        -1.066106     -0.722435      0.541196
      2.16890      9.90865      7.64996         1.038180     -0.852170      0.388085
      8.73003      6.14734      6.19819         0.292582      0.385999     -0.104916
      6.69137      9.94919      7.84202         0.001432     -0.057279      0.393736
      4.57136      6.11356      7.19684        -0.185648      0.208567      0.139112
     -0.01378      3.73573      6.26326         0.104957      0.093997     -0.173264
      1.11971      1.77711      6.20456         2.352337      1.353847     -1.134900
      4.45686     -0.04129      7.66192        -2.280826      1.336155      1.440948
      4.45899      3.86359      5.79321         0.329081     -2.186636     -2.167247
      2.18409      3.98711      5.75529        -0.100090     -1.791479     -2.394334
      5.54565      1.89168      7.24424        -2.298503      1.940742      0.347421
     -4.45706     11.06605      6.57471         2.314593      0.677411     -1.941032
      0.01615      0.02053      7.09578         0.060692     -0.069619      0.146466
     -3.33291      9.29791      7.34659         0.077964      0.029426      0.404770
     -2.50679      7.22013      7.59900         1.395069      1.143189      2.346884
      1.17125      5.45336      7.22118        -1.882073     -0.022271      0.764234
      1.16275      9.23542      7.19487         0.359581     -2.620373     -1.140723
     -1.08433      9.25019      7.04583        -0.331651     -2.604500     -1.139769
      2.32577      7.18433      7.98846        -1.772427      1.154803      2.061085
     -1.33012      5.40413      7.12853         1.722921     -0.076840      1.276383
      9.83991      5.38730      6.42108        -0.561603     -0.396773     -0.141295
      6.67524      3.58456      6.32503        -0.155885     -0.088555     -0.503109
      7.85010      1.87425      7.27428         2.332682      1.893640      0.206655
      4.43994     10.92125      6.87988        -2.416111      0.607315     -1.794393
     -2.16725      3.90624      5.59761         0.272749     -1.892861     -2.385922
      8.84292      3.55482      5.60807        -0.431284     -2.814483     -1.280315
     12.12621      1.62600      6.40874        -2.428994      1.526168     -0.599365
      8.85419     -0.06360      7.91138         2.062966      1.370988      1.655826
      6.68348     -0.04884      7.31851        -0.026900      0.188073     -0.282264
      3.35120      9.22191      7.83532        -0.126580      0.120447      0.560845
      4.55314      7.34832      7.52234         2.578252      1.366084      0.064582
      7.69180      5.53620      5.84160        -2.718823      0.897818     -1.347950
     -5.45746      9.57400      8.04381         0.455337     -2.129799      2.116597
      5.57451      9.49515      8.29397        -0.133862     -1.710071      2.506655
     -4.44394      7.60312      6.40044        -2.033284      1.749663     -1.341097
      5.60682      5.39353      7.10987         2.746389      0.290579      1.391278
      3.38565      5.54127      6.86998         0.440036     -0.431188     -0.442148
     -0.12858      6.60400      8.17510        -0.081906      0.844761      1.241951
     -0.12858      6.60400     13.91590         1.070137      2.415630     -2.824130
     -0.43676      5.90719      0.32742        -1.069107     -2.414976      2.819566
    total drift:                               -0.007798      0.000233      0.015306

  FREE ENERGIE OF THE ION-ELECTRON SYSTEM (eV)
  free  energy   TOTEN  =      -489.60469421 eV

  energy  without entropy=     -489.60469421  energy(sigma->0) =     -489.60469421

 total charge

[...]

 magnetization (x)

# of ion       s       p       d       tot
    1        0.000  -0.000   0.000  -0.000
    2        0.000   0.000   0.000   0.000
    3       -0.000  -0.000   0.000  -0.000
    4       -0.000  -0.000   0.000  -0.000
    5        0.000   0.000   0.000   0.000
    6       -0.000  -0.000   0.000  -0.000
    7       -0.000  -0.000   0.000  -0.000
    8       -0.000  -0.000   0.000  -0.000
    9        0.000  -0.000   0.000  -0.000
   10       -0.000  -0.000   0.000  -0.000
   11       -0.000   0.000   0.000   0.000
   12        0.000   0.000   0.000   0.000
   13       -0.000  -0.000   0.000  -0.000
   14       -0.000  -0.000   0.000  -0.000
   15        0.000   0.000   0.000   0.000
   16       -0.000   0.000   0.000   0.000
   17       -0.000  -0.000   0.000  -0.000
   18       -0.000  -0.000   0.000  -0.000
   19        0.000   0.000   0.000   0.000
   20        0.000  -0.000   0.000  -0.000
   21        0.000  -0.000   0.000   0.000
   22       -0.000  -0.000   0.000  -0.000
   23       -0.000  -0.000   0.000  -0.000
   24        0.000   0.000   0.000   0.000
   25        0.000   0.000   0.000   0.000
   26        0.000   0.000   0.000   0.000
   27        0.000  -0.000   0.000  -0.000
   28       -0.000  -0.000   0.000  -0.000
   29       -0.000  -0.000   0.000  -0.000
   30        0.000  -0.000   0.000  -0.000
   31        0.000  -0.000   0.000  -0.000
   32       -0.000  -0.000   0.000  -0.000
   33        0.000   0.000   0.000   0.000
   34       -0.000  -0.000   0.000  -0.000
   35       -0.000   0.000   0.000   0.000
   36        0.000  -0.000   0.000  -0.000
   37        0.000  -0.000   0.000  -0.000
   38       -0.000   0.000   0.000   0.000
   39       -0.000  -0.000   0.000  -0.000
   40       -0.000  -0.000   0.000  -0.000
   41        0.000   0.000   0.000   0.000
   42        0.000   0.000   0.000   0.000
   43        0.000   0.000   0.000   0.000
   44        0.000   0.000   0.000   0.000
   45        0.000   0.000   0.000   0.000
   46        0.000  -0.000   0.000  -0.000
   47        0.000   0.000   0.000   0.000
   48       -0.000  -0.000   0.000  -0.000
   49        0.000   0.000   0.000   0.000
   50        0.000  -0.000   0.000   0.000
   51       -0.000  -0.000   0.000  -0.000
   52        0.000   0.000   0.000   0.000
   53        0.000   0.000   0.000   0.000
   54        0.000   0.000   0.000   0.000
   55        0.000   0.000   0.000   0.000
   56        0.000   0.000   0.000   0.000
   57        0.000   0.000   0.000   0.000
   58        0.000   0.000   0.000   0.000
   59       -0.000  -0.000   0.000  -0.000
tot          0.000   0.000   0.000   0.000

 BZINTS: Fermi energy: -1.619405;280.000000 electrons
         Band energy:***********;  BLOECHL correction:  0.000000