 vasp.5.4.4.18Apr17-6-g9f103f2a35 (build Jan 14 2022 15:04:31) complex

 executed on             LinuxIFC date 2023.01.27  22:54:36

 INCAR:
 POTCAR:    PAW_PBE C 08Apr2002
 POTCAR:    PAW_PBE N 08Apr2002
 POTCAR:    PAW_PBE C 08Apr2002
 POTCAR:    PAW_PBE Cr_pv 02Aug2007
 POTCAR:    PAW_PBE C 08Apr2002
 POTCAR:    PAW_PBE O 08Apr2002
 POTCAR:    PAW_PBE C 08Apr2002
   VRHFIN =C: s2p2

   TITEL  = PAW_PBE C 08Apr2002
   POMASS =   12.011; ZVAL   =    4.000    mass and valenz
   ENMAX  =  400.000; ENMIN  =  300.000 eV

[...]

   TITEL  = PAW_PBE Cr_pv 02Aug2007
   POMASS =   51.996; ZVAL   =   12.000    mass and valenz
   ENMAX  =  265.681; ENMIN  =  199.261 eV

[...]

   TITEL  = PAW_PBE O 08Apr2002
   POMASS =   16.000; ZVAL   =    6.000    mass and valenz
   ENMAX  =  400.000; ENMIN  =  300.000 eV

  PAW_PBE C 08Apr2002                   :
  PAW_PBE N 08Apr2002                   :
  PAW_PBE C 08Apr2002                   :
  PAW_PBE Cr_pv 02Aug2007               :
  PAW_PBE C 08Apr2002                   :
  PAW_PBE O 08Apr2002                   :

 POSCAR: POSCAR-clean
  positions in cartesian coordinates
 exchange correlation table for  LEXCH =        8
   RHO(1)=    0.500       N(1)  =     2000
   RHO(2)=  100.500       N(2)  =     4000

 VTST: version 3.2, (02/03/18)

 CHAIN: initializing optimizer

 OPT: Using VASP Dynamics algorithm
 CHAIN: Read ICHAIN            0

 POSCAR: POSCAR-clean
  positions in cartesian coordinates

 ion  position               nearest neighbor table
   1  0.000  0.000  0.484-   2 1.42  60 1.42  70 1.43
   2  0.056  0.112  0.484-   1 1.42  13 1.43  15 1.43
   3  0.167  0.001  0.484-   4 1.42  60 1.43  62 1.43
   4  0.223  0.113  0.485-   3 1.42  15 1.42  17 1.43
   5  0.334  0.001  0.483-   6 1.42  64 1.42  62 1.43
   6  0.390  0.113  0.484-  19 1.42   5 1.42  17 1.43
   7  0.500  0.998  0.484-  64 1.42   8 1.43  66 1.43
   8  0.556  0.110  0.484-  21 1.42   7 1.43  19 1.44
   9  0.665  0.997  0.485-  66 1.42  10 1.43  68 1.43
  10  0.721  0.109  0.484-  21 1.42   9 1.43  23 1.43
  11  0.832  0.998  0.484-  12 1.42  70 1.42  68 1.43
  12  0.888  0.110  0.483-  11 1.42  23 1.42  13 1.43
  13  0.999  0.166  0.484-  14 1.42   2 1.43  12 1.43
  14  0.055  0.277  0.484-  13 1.42  25 1.42  27 1.43
  15  0.168  0.169  0.485-   4 1.42  16 1.43   2 1.43
  16  0.224  0.281  0.487-  27 1.42  15 1.43  29 1.45
  17  0.335  0.169  0.485-  18 1.42   4 1.43   6 1.43
  18  0.390  0.280  0.487-  17 1.42  31 1.43  29 1.44
  19  0.500  0.167  0.484-   6 1.42  20 1.42   8 1.44
  20  0.556  0.278  0.485-  19 1.42  33 1.43  31 1.43
  21  0.666  0.165  0.484-   8 1.42  10 1.42  22 1.42
  22  0.722  0.277  0.485-  35 1.42  21 1.42  33 1.42
  23  0.832  0.165  0.483-  24 1.42  12 1.42  10 1.43
  24  0.888  0.277  0.484-  23 1.42  25 1.43  35 1.43
  25  0.999  0.333  0.484-  14 1.42  26 1.43  24 1.43
  26  0.055  0.444  0.484-  39 1.42  37 1.42  25 1.43
  27  0.166  0.334  0.486-  28 1.42  16 1.42  14 1.43
  28  0.221  0.445  0.488-  41 1.42  27 1.42  39 1.42
  29  0.337  0.339  0.491-  30 1.43  18 1.44  16 1.45
  30  0.391  0.451  0.499-  41 1.41  29 1.43  71 2.05
  31  0.501  0.335  0.485-  32 1.41  18 1.43  20 1.43
  32  0.558  0.445  0.488-  31 1.41  43 1.42  71 1.90
  33  0.667  0.333  0.487-  34 1.42  22 1.42  20 1.43
  34  0.724  0.444  0.491-  33 1.42  45 1.42  43 1.42
  35  0.833  0.333  0.485-  36 1.42  22 1.42  24 1.43
  36  0.889  0.444  0.486-  45 1.42  35 1.42  37 1.42
  37  1.000  0.500  0.484-  38 1.42  26 1.42  36 1.42
  38  0.055  0.611  0.484-  37 1.42  49 1.42  47 1.42
  39  0.166  0.501  0.486-  26 1.42  40 1.42  28 1.42
  40  0.221  0.612  0.486-  49 1.41  39 1.42  51 1.43
  41  0.331  0.500  0.494-  30 1.41  28 1.42  42 1.43
  42  0.386  0.612  0.494-  51 1.41  53 1.41  41 1.43
  43  0.668  0.499  0.491-  32 1.42  34 1.42  44 1.44  71 2.50
  44  0.725  0.612  0.491-  55 1.42  57 1.42  43 1.44  71 2.50
  45  0.834  0.500  0.490-  36 1.42  34 1.42  46 1.42
  46  0.890  0.611  0.489-  47 1.42  57 1.42  45 1.42
  47  0.001  0.667  0.486-  46 1.42  48 1.42  38 1.42
  48  0.056  0.779  0.484-  47 1.42  59 1.43  61 1.43
  49  0.166  0.667  0.484-  40 1.41  50 1.42  38 1.42
  50  0.223  0.778  0.484-  49 1.42  61 1.43  63 1.43
  51  0.333  0.668  0.488-  42 1.41  52 1.41  40 1.43
  52  0.389  0.779  0.486-  65 1.40  51 1.41  63 1.43
  53  0.496  0.662  0.501-  42 1.41  54 1.41  71 2.08
  54  0.552  0.773  0.492-  53 1.41  65 1.44  67 1.44
  55  0.668  0.665  0.488-  56 1.41  44 1.42  71 1.90
  56  0.720  0.776  0.485-  55 1.41  67 1.43  69 1.44
  57  0.835  0.667  0.491-  58 1.42  46 1.42  44 1.42
  58  0.889  0.778  0.487-  57 1.42  59 1.43  69 1.43
  59  0.001  0.834  0.485-  60 1.42  48 1.43  58 1.43
  60  0.056  0.945  0.484-  59 1.42   1 1.42   3 1.43
  61  0.167  0.834  0.483-  62 1.42  50 1.43  48 1.43
  62  0.223  0.946  0.483-  61 1.42   5 1.43   3 1.43
  63  0.334  0.834  0.484-  64 1.42  52 1.43  50 1.43
  64  0.389  0.945  0.484-  63 1.42   7 1.42   5 1.42
  65  0.499  0.831  0.487-  52 1.40  66 1.41  54 1.44
  66  0.554  0.942  0.485-  65 1.41   9 1.42   7 1.43
  67  0.664  0.831  0.487-  68 1.41  56 1.43  54 1.44
  68  0.721  0.942  0.485-  67 1.41   9 1.43  11 1.43
  69  0.833  0.833  0.485-  70 1.42  58 1.43  56 1.44
  70  0.888  0.944  0.484-  69 1.42  11 1.42   1 1.43
  71  0.542  0.555  0.535-  55 1.90  32 1.90  30 2.05  53 2.08  43 2.50  44 2.50
  72  0.542  0.555  0.934-  73 1.16
  73  0.492  0.498  0.990-  72 1.16

IMPORTANT INFORMATION: All symmetrisations will be switched off!
NOSYMM: (Re-)initialisation of all symmetry stuff for point group C_1.

 KPOINTS: K-Points

Automatic generation of k-mesh.
Space group operators:
 irot       det(A)        alpha          n_x          n_y          n_z        tau_x        tau_y        tau_z
    1     1.000000     0.000001     1.000000     0.000000     0.000000     0.000000     0.000000     0.000000

 Subroutine IBZKPT returns following result:

 Found      5 irreducible k-points:

 Following reciprocal coordinates:
            Coordinates               Weight
  0.000000  0.000000  0.000000      1.000000
  0.333333  0.000000  0.000000      2.000000
 -0.000000  0.333333  0.000000      2.000000
  0.333333  0.333333  0.000000      2.000000
 -0.333333  0.333333  0.000000      2.000000

 Following cartesian coordinates:
            Coordinates               Weight
  0.000000  0.000000  0.000000      1.000000
  0.022441  0.013064  0.000000      2.000000
  0.000017  0.026128  0.000000      2.000000
  0.022459  0.039192  0.000000      2.000000
 -0.022424  0.013064  0.000000      2.000000

 TETIRR: Found     24 inequivalent tetrahedra from       54

 SYSTEM =  unknown system
 POSCAR =  POSCAR-clean

 Startparameter for this run:
   NWRITE =      2    write-flag & timer
   PREC   = normal    normal or accurate (medium, high low for compatibility)
   ISTART =      0    job   : 0-new  1-cont  2-samecut
   ICHARG =      2    charge: 1-file 2-atom 10-const
   ISPIN  =      2    spin polarized calculation?
   LNONCOLLINEAR =      F non collinear calculations
   LSORBIT =      F    spin-orbit coupling
   INIWAV =      1    electr: 0-lowe 1-rand  2-diag
   LASPH  =      F    aspherical Exc in radial PAW
   METAGGA=      F    non-selfconsistent MetaGGA calc.

 Electronic Relaxation 1
   ENCUT  =  440.0 eV  32.34 Ry    5.69 a.u.  25.41 25.26 25.66*2*pi/ulx,y,z
   ENINI  =  440.0     initial cutoff
   ENAUG  =  644.9 eV  augmentation charge cutoff
   NELM   =    100;   NELMIN=  2; NELMDL= -5     # of ELM steps
   EDIFF  = 0.1E-03   stopping-criterion for ELM
   LREAL  =      F    real-space projection
   NLSPLINE    = F    spline interpolate recip. space projectors
   LCOMPAT=      F    compatible to vasp.4.4
   GGA_COMPAT  = T    GGA compatible to vasp.4.4-vasp.4.6
   LMAXPAW     = -100 max onsite density
   LMAXMIX     =    2 max onsite mixed and CHGCAR
   VOSKOWN=      0    Vosko Wilk Nusair interpolation
   ROPT   =    0.00000   0.00000   0.00000   0.00000
   ROPT   =    0.00000   0.00000
 Ionic relaxation
   EDIFFG = -.1E-01   stopping-criterion for IOM
   NSW    =      0    number of steps for IOM
   NBLOCK =      1;   KBLOCK =      1    inner block; outer block
   IBRION =     -1    ionic relax: 0-MD 1-quasi-New 2-CG
   NFREE  =      0    steps in history (QN), initial steepest desc. (CG)
   ISIF   =      2    stress and relaxation
   IWAVPR =     10    prediction:  0-non 1-charg 2-wave 3-comb
   ISYM   =      0    0-nonsym 1-usesym 2-fastsym
   LCORR  =      T    Harris-Foulkes like correction to forces

   POTIM  = 0.5000    time-step for ionic-motion
   TEIN   =    0.0    initial temperature
   TEBEG  =    0.0;   TEEND  =   0.0 temperature during run
   SMASS  =  -3.00    Nose mass-parameter (am)
   estimated Nose-frequenzy (Omega)   =  0.10E-29 period in steps =****** mass=  -0.505E-26a.u.
   SCALEE = 1.0000    scale energy and forces
   NPACO  =    256;   APACO  = 16.0  distance and # of slots for P.C.
   PSTRESS=    0.0 pullay stress

  Mass of Ions in am
   POMASS =  12.01 14.00 12.01 52.00 12.01 16.00
  Ionic Valenz
   ZVAL   =   4.00  5.00  4.00 12.00  4.00  6.00
  Atomic Wigner-Seitz radii
  virtual crystal weights
   VCA    =   1.00  1.00  1.00  1.00  1.00  1.00
   NELECT =     303.0000    total number of electrons
   NUPDOWN=      -1.0000    fix difference up-down

 DOS related values:
   EMIN   = -14.00;   EMAX   =  6.00  energy-range for DOS
   EFERMI =   0.00
   ISMEAR =    -5;   SIGMA  =   0.20  broadening in eV -4-tet -1-fermi 0-gaus

 Electronic relaxation 2 (details)
   IALGO  =     38    algorithm
   LDIAG  =      T    sub-space diagonalisation (order eigenvalues)
   LSUBROT=      F    optimize rotation matrix (better conditioning)
   TURBO    =      0    0=normal 1=particle mesh
   IRESTART =      0    0=no restart 2=restart with 2 vectors
   NREBOOT  =      0    no. of reboots
   NMIN     =      0    reboot dimension
   EREF     =   0.00    reference energy to select bands
   IMIX   =      4    mixing-type and parameters
     AMIX     =   0.25;   BMIX     =  0.00
     AMIX_MAG =   1.00;   BMIX_MAG =  0.00
     AMIN     =   0.10
     WC   =   100.;   INIMIX=   1;  MIXPRE=   1;  MAXMIX= -45

 Intra band minimization:
   WEIMIN = 0.0000     energy-eigenvalue tresh-hold
   EBREAK =  0.13E-06  absolut break condition
   DEPER  =   0.30     relativ break condition

   TIME   =   0.40     timestep for ELM

  volume/ion in A,a.u.               =      38.95       262.87
  Fermi-wavevector in a.u.,A,eV,Ry     =   0.776132  1.466677  8.195894  0.602381
  Thomas-Fermi vector in A             =   1.878546

 Write flags
   LWAVE        =      F    write WAVECAR
   LDOWNSAMPLE  =      F    k-point downsampling of WAVECAR
   LCHARG       =      F    write CHGCAR
   LVTOT        =      F    write LOCPOT, total local potential
   LVHAR        =      F    write LOCPOT, Hartree potential only
   LELF         =      F    write electronic localiz. function (ELF)
   LORBIT       =     11    0 simple, 1 ext, 2 COOP (PROOUT), +10 PAW based schemes

 Dipole corrections
   LMONO  =      F    monopole corrections only (constant potential shift)
   LDIPOL =      F    correct potential (dipole corrections)
[...]
   0.265E+01 0.302E+01 0.908E+01   -.259E+01 -.303E+01 -.905E+01   -.921E-01 0.345E-01 -.201E-01   -.206E-02 -.981E-03 -.125E-02
   0.363E+01 0.438E+01 0.103E+02   -.359E+01 -.447E+01 -.103E+02   -.385E-01 0.521E-01 0.508E-01   -.133E-02 -.710E-04 -.130E-02
   0.721E+01 0.116E+02 0.663E+01   -.702E+01 -.117E+02 -.656E+01   -.261E+00 0.412E-01 -.569E-01   -.597E-02 -.440E-02 -.256E-02
   0.134E+02 0.744E+01 0.786E+01   -.129E+02 -.734E+01 -.798E+01   -.491E+00 -.743E-01 0.148E+00   -.119E-01 -.251E-02 -.378E-02
   0.480E+01 0.181E+02 0.390E+01   -.452E+01 -.166E+02 -.399E+01   -.251E+00 -.148E+01 0.605E-01   -.131E-01 -.242E-01 -.108E-01
   -.728E-01 0.295E+02 0.952E+00   0.656E+01 -.253E+02 0.441E+00   -.645E+01 -.412E+01 -.135E+01   -.679E-01 -.679E-01 -.396E-01
   -.887E+00 0.245E+02 0.311E+02   0.462E+00 -.240E+02 -.313E+02   0.387E+00 -.431E+00 0.231E+00   0.110E-01 -.293E-01 -.128E-01
   0.307E+01 0.559E+02 0.717E+02   -.956E+01 -.532E+02 -.718E+02   0.657E+01 -.267E+01 0.940E-01   0.620E-01 -.872E-01 -.521E-01
   -.849E+01 0.113E+02 0.250E+01   0.830E+01 -.112E+02 -.257E+01   0.184E+00 -.566E-01 0.634E-01   0.747E-02 -.853E-02 -.383E-02
   -.179E+02 0.786E+01 -.126E+02   0.178E+02 -.775E+01 0.129E+02   0.214E-01 -.310E-01 -.286E+00   0.144E-01 -.760E-02 -.668E-02
   -.488E+01 0.342E+01 0.565E+01   0.492E+01 -.340E+01 -.561E+01   0.163E-01 -.367E-01 -.178E-01   0.117E-02 -.309E-02 -.157E-02
   -.650E+01 0.281E+01 0.453E+01   0.648E+01 -.280E+01 -.459E+01   0.833E-01 -.149E-02 0.810E-01   0.282E-02 -.230E-02 -.191E-02
   0.253E+00 0.218E+01 0.865E+01   -.278E+00 -.224E+01 -.867E+01   -.298E-01 0.495E-01 0.280E-01   0.105E-02 -.514E-03 -.142E-02
   0.558E+00 -.114E+01 0.896E+01   -.688E+00 0.106E+01 -.897E+01   0.118E+00 0.873E-01 0.247E-01   0.132E-02 0.199E-02 -.140E-02
   0.796E+01 0.368E+01 0.883E+01   -.783E+01 -.394E+01 -.879E+01   -.134E+00 0.218E+00 -.376E-01   -.594E-02 0.554E-03 -.187E-02
   0.743E+01 0.835E+00 0.926E+01   -.778E+01 -.116E+01 -.924E+01   0.372E+00 0.364E+00 -.155E-01   -.382E-02 0.443E-02 -.178E-02
   0.237E+02 0.133E+02 0.235E+01   -.223E+02 -.140E+02 -.243E+01   -.148E+01 0.751E+00 0.123E+00   -.396E-01 -.106E-01 -.165E-01
   0.233E+02 -.898E+00 -.463E+00   -.218E+02 0.296E+00 0.541E+00   -.150E+01 0.548E+00 -.310E-01   -.396E-01 0.199E-01 -.165E-01
   -.446E+02 0.150E+02 0.147E+02   0.446E+02 -.159E+02 -.162E+02   -.788E-02 0.855E+00 0.142E+01   0.546E-01 -.233E-01 -.232E-01
   -.441E+02 -.156E+02 0.177E+02   0.442E+02 0.164E+02 -.191E+02   -.788E-02 -.833E+00 0.135E+01   0.532E-01 0.244E-01 -.234E-01
   -.114E+02 0.955E+00 -.773E+01   0.114E+02 -.943E+00 0.787E+01   0.293E-01 -.148E-04 -.135E+00   0.813E-02 -.174E-02 -.378E-02
   -.110E+02 -.168E+01 -.695E+01   0.110E+02 0.165E+01 0.709E+01   0.540E-01 0.497E-02 -.136E+00   0.831E-02 0.190E-02 -.376E-02
   -.534E+01 -.277E+01 0.546E+01   0.526E+01 0.276E+01 -.552E+01   0.114E+00 -.771E-05 0.823E-01   0.370E-02 0.209E-02 -.189E-02
   -.320E+01 -.481E+01 0.683E+01   0.309E+01 0.482E+01 -.680E+01   0.168E+00 0.198E-01 -.915E-02   0.448E-02 0.177E-02 -.158E-02
   0.737E+01 -.140E+01 0.105E+02   -.754E+01 0.122E+01 -.106E+02   0.140E+00 0.188E+00 0.438E-01   0.501E-03 0.417E-02 -.125E-02
   0.575E+01 -.388E+01 0.895E+01   -.627E+01 0.358E+01 -.892E+01   0.517E+00 0.296E+00 -.255E-01   0.183E-02 0.292E-02 -.118E-02
   0.202E+02 0.299E+01 0.876E+01   -.200E+02 -.470E+01 -.896E+01   -.231E+00 0.167E+01 0.229E+00   -.935E-02 0.877E-02 -.356E-02
   0.309E+02 0.300E+01 0.741E+01   -.360E+02 -.610E+01 -.746E+01   0.513E+01 0.312E+01 0.617E-01   -.614E-02 0.575E-02 -.247E-02
   -.810E+01 -.173E+02 -.136E+02   0.155E+02 0.114E+02 0.153E+02   -.738E+01 0.578E+01 -.169E+01   -.691E-01 0.732E-01 -.383E-01
   -.176E+02 -.711E+01 -.315E+01   0.229E+02 0.232E+01 0.365E+01   -.530E+01 0.474E+01 -.532E+00   -.145E-01 0.239E-01 -.104E-01
   0.147E+01 -.544E+02 0.769E+02   -.784E+01 0.515E+02 -.772E+02   0.644E+01 0.292E+01 0.281E+00   0.597E-01 0.891E-01 -.516E-01
   -.368E+01 -.253E+02 0.313E+02   0.376E+01 0.245E+02 -.316E+02   -.884E-01 0.778E+00 0.279E+00   0.725E-02 0.279E-01 -.125E-01
   -.185E+02 -.853E+01 -.973E+01   0.184E+02 0.844E+01 0.997E+01   0.355E-02 0.179E-01 -.264E+00   0.140E-01 0.669E-02 -.669E-02
   -.859E+01 -.131E+02 0.502E+01   0.851E+01 0.131E+02 -.509E+01   0.111E+00 0.260E-01 0.719E-01   0.592E-02 0.598E-02 -.377E-02
   -.442E+01 -.412E+01 0.596E+01   0.434E+01 0.413E+01 -.597E+01   0.453E-01 -.178E-01 0.158E-01   0.430E-02 0.217E-02 -.193E-02
   -.221E+01 -.388E+01 0.680E+01   0.222E+01 0.389E+01 -.683E+01   0.110E-01 -.464E-02 0.257E-01   0.231E-02 0.649E-03 -.155E-02
   0.174E+01 -.157E+00 0.906E+01   -.198E+01 0.173E+00 -.909E+01   0.189E+00 -.464E-01 0.426E-01   0.308E-02 0.153E-02 -.116E-02
   0.268E+01 -.196E+01 0.799E+01   -.286E+01 0.201E+01 -.798E+01   0.192E+00 -.387E-01 -.645E-02   0.285E-02 -.241E-03 -.122E-02
   0.131E+02 -.847E+00 0.820E+01   -.144E+02 0.123E+01 -.825E+01   0.128E+01 -.359E+00 0.443E-01   0.137E-03 0.153E-02 -.141E-02
   0.891E+01 -.732E+01 0.723E+01   -.961E+01 0.773E+01 -.725E+01   0.737E+00 -.421E+00 0.173E-01   0.597E-03 -.782E-03 -.132E-02
   -.201E+01 -.102E+02 0.884E+01   0.411E+01 0.915E+01 -.909E+01   -.210E+01 0.103E+01 0.245E+00   -.787E-02 0.103E-01 -.357E-02
   0.233E+01 -.313E+02 0.785E+01   -.216E+01 0.372E+02 -.798E+01   -.186E+00 -.595E+01 0.135E+00   -.191E-02 0.412E-02 -.182E-02
   -.372E+01 -.974E+01 0.968E+01   0.476E+01 0.948E+01 -.947E+01   -.103E+01 0.278E+00 -.212E+00   -.424E-02 0.203E-01 -.776E-02
   -.633E+01 -.145E+02 0.892E+01   0.699E+01 0.144E+02 -.894E+01   -.698E+00 0.960E-01 0.374E-01   -.354E-02 0.483E-02 -.257E-02
   -.516E+01 -.104E+02 0.150E+02   0.492E+01 0.102E+02 -.152E+02   0.217E+00 0.157E+00 0.152E+00   0.301E-02 0.963E-02 -.406E-02
   -.570E+01 -.948E+01 0.850E+01   0.583E+01 0.942E+01 -.852E+01   -.790E-01 0.852E-01 0.599E-02   -.428E-03 0.369E-02 -.208E-02
   0.489E+02 0.155E+01 -.570E+03   -.564E+02 -.183E+01 0.554E+03   0.719E+01 0.342E+00 0.164E+02   0.121E-01 0.471E-02 -.915E-01
   -.638E+02 -.144E+03 0.101E+03   0.711E+02 0.160E+03 -.120E+03   -.774E+01 -.175E+02 0.204E+02   -.404E-03 -.363E-03 0.806E-02
   0.558E+02 0.127E+03 -.148E+03   -.715E+02 -.162E+03 0.190E+03   0.162E+02 0.366E+02 -.426E+02   -.640E-03 -.950E-03 0.614E-02
   -.109E+02 -.198E+02 0.552E+01   -.426E-13 0.114E-12 -.256E-12   0.109E+02 0.198E+02 -.498E+01   0.413E-01 -.929E-04 -.525E+00

 POSITION                                       TOTAL-FORCE (eV/Angst)
      0.00059      0.00547      7.26279        -0.029346     -0.020698     -0.013149
      0.00257      1.42848      7.26220        -0.005863      0.015302     -0.008404
      2.47654      0.01675      7.25573        -0.015209     -0.034503      0.001032
      2.47539      1.43791      7.26782         0.055269      0.006376     -0.006307
      4.95168      0.01027      7.25063        -0.036092     -0.005644     -0.003011
      4.95238      1.43262      7.25640        -0.013770     -0.023535     -0.008146
      0.00487     12.73678      7.26518        -0.032957     -0.024714     -0.003473
      7.43678      1.39975      7.26566        -0.002851      0.028423     -0.008936
      2.46980     12.72097      7.27235         0.042993     -0.008692     -0.001396
      9.89941      1.38464      7.25828         0.039129      0.040919      0.006468
      4.94758     12.73523      7.25516         0.004626      0.032024     -0.009340
     12.37750      1.39534      7.24945         0.019374     -0.010951     -0.002526
     13.61430      2.11214      7.25609         0.006630     -0.024379     -0.005507
     -1.24591      3.54081      7.26339         0.041130      0.013740     -0.001995
      1.24150      2.15044      7.27249        -0.028818      0.013070      0.013910
      1.24420      3.58103      7.30481         0.043817     -0.015545     -0.005259
      3.71447      2.15518      7.27171        -0.035414     -0.003040      0.009973
      3.71357      3.57353      7.30581        -0.013663      0.026093     -0.004356
      6.19581      2.12068      7.26427         0.040709     -0.013499     -0.009015
      6.19634      3.54277      7.27491         0.001810      0.029482     -0.019535
      8.67131      2.10328      7.26433        -0.007238     -0.011608      0.003057
      8.67352      3.52671      7.28079         0.003000      0.001684      0.000539
     11.14034      2.09951      7.25052        -0.052862     -0.005009      0.004418
     11.14258      3.52239      7.25305        -0.017386      0.033217      0.014593
     12.37739      4.23658      7.25546        -0.037363      0.017735      0.006465
     -2.48567      5.67198      7.26079        -0.003429     -0.039212      0.000181
     -0.00912      4.25706      7.29493        -0.071804     -0.008741      0.008087
     -0.02686      5.67307      7.31821         0.012102      0.027908      0.021011
      2.48263      4.32626      7.36215         0.028630     -0.007449     -0.045956
      2.46139      5.75077      7.47815        -0.021983     -0.020120      0.004715
      4.95849      4.26743      7.27727        -0.033996      0.043805      0.016435
      4.98374      5.67677      7.32634         0.135371     -0.112918     -0.101571
      7.44148      4.23956      7.30925        -0.003920     -0.027334     -0.004014
      7.45688      5.65675      7.36935        -0.068861      0.072014     -0.021778
      9.90739      4.23591      7.27307         0.053524     -0.024315      0.017330
      9.91005      5.65808      7.28908         0.070000      0.009039      0.015919
     11.14302      6.37179      7.26628        -0.054622     -0.015074      0.010250
     -3.71747      7.80172      7.26484        -0.011109      0.012174      0.009805
     -1.25863      6.38659      7.28369        -0.002741     -0.036075     -0.004043
     -1.26035      7.80730      7.28305         0.021678      0.039450     -0.004089
      1.19625      6.37991      7.40302        -0.035442     -0.002955      0.025278
      1.19117      7.80528      7.41227        -0.028347     -0.034073      0.027808
      6.22181      6.36362      7.36605         0.124019     -0.008071     -0.059882
      6.22063      7.80280      7.35758         0.153954      0.019043     -0.054504
      8.68460      6.37035      7.34390         0.009116      0.010350      0.001750
      8.68346      7.79408      7.34000         0.039977     -0.022352      0.004362
     -4.94921      8.51474      7.28451         0.039645     -0.006341      0.024315
     -4.95122      9.93571      7.26710         0.064974      0.028079      0.018866
     -2.48546      8.51273      7.26005        -0.028433      0.018894     -0.003206
     -2.47475      9.93272      7.25578        -0.005371     -0.002577      0.007184
     -0.01975      8.51898      7.31937        -0.022371     -0.030384      0.028576
      0.00044      9.93232      7.29702         0.011518      0.020773      0.007091
      2.44276      8.44946      7.50986         0.008504      0.022725     -0.008334
      2.46345      9.85721      7.38362         0.004186     -0.024765     -0.040591
      4.97805      8.48500      7.31400         0.113397      0.053328     -0.065922
      4.94100      9.89249      7.27570        -0.005686     -0.035208     -0.000279
      7.45486      8.50753      7.35874        -0.100746     -0.067918     -0.024282
      7.43484      9.92371      7.29878         0.031145      0.043113     -0.003485
     -6.18774     10.64544      7.27319        -0.030775     -0.008767      0.002530
     -6.18979     12.06592      7.26035         0.021990      0.014613     -0.001035
     -3.71127     10.64612      7.25114        -0.042354     -0.028219      0.013515
     -3.71593     12.06521      7.24977         0.012734      0.005801      0.000914
     -1.23468     10.64250      7.26565        -0.015536      0.022481     -0.005348
     -1.24612     12.05833      7.25851         0.043601     -0.007641     -0.003736
      1.23428     10.60352      7.30990        -0.006198      0.024508     -0.009220
      1.23810     12.01448      7.27773        -0.013194     -0.040850      0.010502
      3.69772     10.60114      7.31238         0.002630      0.027635     -0.012046
      3.71257     12.01431      7.27492        -0.038639     -0.021137      0.009310
      6.18571     10.61837      7.26960        -0.021528     -0.032456     -0.012263
      6.18938     12.03810      7.26134         0.046061      0.029165     -0.008220
      3.92318      7.08233      8.02903        -0.350746      0.065113      0.264995
      3.92318      7.08233     14.00903        -0.489172     -1.105080      1.268083
      3.60217      6.35649     14.85437         0.488591      1.103776     -1.275110
    total drift:                                0.003332     -0.000451      0.007945

  FREE ENERGIE OF THE ION-ELECTRON SYSTEM (eV)
  free  energy   TOTEN  =      -668.40942011 eV

  energy  without entropy=     -668.40942011  energy(sigma->0) =     -668.40942011

 stress matrix after NEB project (eV)
     -8.58653     -0.53597      0.16995
     -0.53597     -1.45590      0.94811
      0.16995      0.94811     -4.39644
  FORCES: max atom, RMS     1.755833    0.300540
  FORCE total and by dimension    2.567814    1.275110
  Stress total and by dimension    9.879624    8.586530

 total charge

[...]

 magnetization (x)

# of ion       s       p       d       tot
    1       -0.000  -0.000   0.000  -0.001
    2        0.000   0.002   0.000   0.002
    3       -0.000  -0.001   0.000  -0.001
    4        0.001   0.009   0.000   0.009
    5       -0.000  -0.001   0.000  -0.002
    6        0.001   0.012   0.000   0.012
    7       -0.000  -0.001   0.000  -0.001
    8        0.000   0.002   0.000   0.002
    9        0.000   0.007   0.000   0.007
   10        0.000   0.002   0.000   0.003
   11        0.000   0.006   0.000   0.006
   12        0.000   0.003   0.000   0.003
   13       -0.000  -0.000   0.000  -0.000
   14        0.000   0.005   0.000   0.005
   15       -0.000  -0.000   0.000  -0.000
   16        0.001   0.008   0.000   0.009
   17       -0.001  -0.006   0.000  -0.007
   18        0.002   0.027   0.000   0.029
   19       -0.000  -0.001   0.000  -0.001
   20        0.001   0.007   0.000   0.008
   21       -0.000  -0.002   0.000  -0.002
   22        0.000   0.007   0.000   0.007
   23        0.000   0.005   0.000   0.005
   24       -0.000  -0.000   0.000  -0.000
   25        0.000   0.004   0.000   0.004
   26        0.000   0.005   0.000   0.005
   27       -0.000  -0.003   0.000  -0.003
   28        0.000   0.003   0.000   0.004
   29       -0.001  -0.009   0.000  -0.009
   30        0.012   0.071   0.000   0.083
   31       -0.002  -0.014   0.000  -0.016
   32        0.014   0.088   0.000   0.102
   33       -0.000  -0.003   0.000  -0.003
   34        0.000   0.002   0.000   0.002
   35        0.000   0.006   0.000   0.006
   36        0.000   0.003   0.000   0.003
   37       -0.000  -0.000   0.000  -0.000
   38        0.000   0.002   0.000   0.002
   39        0.000   0.004   0.000   0.004
   40        0.000   0.008   0.000   0.008
   41       -0.001   0.002   0.000   0.001
   42       -0.000   0.014   0.000   0.014
   43       -0.000   0.009   0.000   0.008
   44       -0.000   0.014   0.000   0.013
   45        0.000   0.004   0.000   0.005
   46        0.001   0.010   0.000   0.011
   47       -0.000  -0.001   0.000  -0.001
   48        0.001   0.009   0.000   0.010
   49       -0.000  -0.001   0.000  -0.001
   50        0.001   0.012   0.000   0.013
   51        0.000   0.002   0.000   0.002
   52        0.000   0.002   0.000   0.002
   53        0.012   0.059   0.000   0.070
   54       -0.000  -0.006   0.000  -0.006
   55        0.014   0.080   0.000   0.094
   56       -0.001  -0.009   0.000  -0.010
   57       -0.000  -0.000   0.000  -0.001
   58       -0.000  -0.001   0.000  -0.001
   59        0.000   0.002   0.000   0.002
   60        0.000   0.003   0.000   0.004
   61       -0.000  -0.003   0.000  -0.003
   62        0.000   0.008   0.000   0.008
   63       -0.000   0.000   0.000   0.000
   64        0.000   0.003   0.000   0.003
   65        0.001   0.004   0.000   0.004
   66        0.000   0.005   0.000   0.005
   67        0.001   0.023   0.000   0.025
   68       -0.001  -0.004   0.000  -0.005
   69        0.001   0.004   0.000   0.004
   70        0.000   0.003   0.000   0.003
   71       -0.033   0.004  -1.742  -1.771
   72        0.000   0.000   0.000   0.000
   73        0.000  -0.000   0.000   0.000
tot          0.024   0.506  -1.742  -1.212

 BZINTS: Fermi energy: -2.114529;303.000000 electrons
         Band energy:***********;  BLOECHL correction:  0.000000