 vasp.5.4.4.18Apr17-6-g9f103f2a35 (build Jan 14 2022 15:04:31) complex

 executed on             LinuxIFC date 2023.01.23  17:52:25

 INCAR:
 POTCAR:    PAW_PBE C 08Apr2002
 POTCAR:    PAW_PBE N 08Apr2002
 POTCAR:    PAW_PBE C 08Apr2002
 POTCAR:    PAW_PBE Cr_pv 02Aug2007
 POTCAR:    PAW_PBE C 08Apr2002
   VRHFIN =C: s2p2

   TITEL  = PAW_PBE C 08Apr2002
   POMASS =   12.011; ZVAL   =    4.000    mass and valenz
   ENMAX  =  400.000; ENMIN  =  300.000 eV

[...]

   TITEL  = PAW_PBE C 08Apr2002
   POMASS =   12.011; ZVAL   =    4.000    mass and valenz
   ENMAX  =  400.000; ENMIN  =  300.000 eV

   TITEL  = PAW_PBE Cr_pv 02Aug2007
   POMASS =   51.996; ZVAL   =   12.000    mass and valenz
   ENMAX  =  265.681; ENMIN  =  199.261 eV

 Optimization of the real space projectors (new method)

 maximal supplied QI-value         = 25.13
 optimisation between [QCUT,QGAM] = [ 10.56, 21.36] = [ 31.20,127.80] Ry
 Optimized for a Real-space Cutoff    1.32 Angstroem

   l    n(q)    QCUT    max X(q) W(low)/X(q) W(high)/X(q)  e(spline)
   0      8    10.556   115.676    0.17E-03    0.39E-03    0.26E-06
   0      8    10.556    87.132    0.17E-03    0.39E-03    0.26E-06
   1      8    10.556     4.429    0.24E-03    0.31E-03    0.16E-06
   1      8    10.556     2.733    0.17E-03    0.22E-03    0.19E-06
 Optimization of the real space projectors (new method)

[...]

   l    n(q)    QCUT    max X(q) W(low)/X(q) W(high)/X(q)  e(spline)
   0      8    10.556   115.676    0.17E-03    0.39E-03    0.26E-06
   0      8    10.556    87.132    0.17E-03    0.39E-03    0.26E-06
   1      8    10.556     4.429    0.24E-03    0.31E-03    0.16E-06
   1      8    10.556     2.733    0.17E-03    0.22E-03    0.19E-06
 Optimization of the real space projectors (new method)

 maximal supplied QI-value         = 16.25
 optimisation between [QCUT,QGAM] = [ 10.73, 21.45] = [ 32.22,128.87] Ry
 Optimized for a Real-space Cutoff    1.53 Angstroem

   l    n(q)    QCUT    max X(q) W(low)/X(q) W(high)/X(q)  e(spline)
   1      9    10.726     3.262    0.64E-04    0.35E-04    0.11E-06
   1      9    10.726     5.741    0.13E-03    0.48E-04    0.19E-06
   2      9    10.726    60.438    0.12E-03    0.29E-04    0.13E-06
   2      9    10.726    55.380    0.12E-03    0.29E-04    0.13E-06
   0     10    10.726    80.273    0.43E-04    0.74E-05    0.81E-07
   0     10    10.726    36.654    0.34E-04    0.61E-05    0.73E-07
  PAW_PBE C 08Apr2002                   :
  PAW_PBE N 08Apr2002                   :
  PAW_PBE C 08Apr2002                   :
  PAW_PBE Cr_pv 02Aug2007               :

 POSCAR: POSCAR-clean
  positions in direct lattice
  velocities in cartesian coordinates
 exchange correlation table for  LEXCH =        8
   RHO(1)=    0.500       N(1)  =     2000
   RHO(2)=  100.500       N(2)  =     4000

 VTST: version 3.2, (02/03/18)

 CHAIN: initializing optimizer

 OPT: Using VASP Conjugate-Gradient optimizer
 CHAIN: Read ICHAIN            0

 POSCAR: POSCAR-clean
  positions in direct lattice
  velocities in cartesian coordinates

 ion  position               nearest neighbor table
   1  1.000  1.000  0.498-   2 1.42  60 1.42  70 1.44
   2  0.056  0.111  0.498-   1 1.42  13 1.43  15 1.44
   3  0.168  0.002  0.498-   4 1.42  62 1.43  60 1.43
   4  0.224  0.113  0.498-   3 1.42  15 1.43  17 1.43
   5  0.334  0.002  0.498-   6 1.42  64 1.42  62 1.43
   6  0.390  0.113  0.498-  19 1.42   5 1.42  17 1.43
   7  0.500  0.999  0.498-  64 1.42   8 1.43  66 1.43
   8  0.556  0.111  0.498-  21 1.42   7 1.43  19 1.44
   9  0.665  0.997  0.498-  66 1.42  10 1.43  68 1.43
  10  0.721  0.109  0.498-  21 1.42   9 1.43  23 1.43
  11  0.832  0.998  0.498-  12 1.42  70 1.42  68 1.43
  12  0.888  0.109  0.498-  11 1.42  23 1.42  13 1.43
  13  0.999  0.166  0.498-  14 1.42   2 1.43  12 1.43
  14  0.054  0.277  0.498-  13 1.42  25 1.42  27 1.43
  15  0.167  0.168  0.498-   4 1.43  16 1.43   2 1.44
  16  0.223  0.280  0.500-  27 1.43  15 1.43  29 1.44
  17  0.335  0.170  0.499-  18 1.42   6 1.43   4 1.43
  18  0.391  0.281  0.502-  17 1.42  31 1.43  29 1.44
  19  0.501  0.168  0.498-   6 1.42  20 1.42   8 1.44
  20  0.557  0.279  0.500-  33 1.42  19 1.42  31 1.44
  21  0.666  0.165  0.498-   8 1.42  22 1.42  10 1.42
  22  0.722  0.277  0.498-  21 1.42  35 1.42  33 1.42
  23  0.832  0.165  0.498-  24 1.42  12 1.42  10 1.43
  24  0.888  0.276  0.498-  35 1.42  23 1.42  25 1.43
  25  0.999  0.332  0.498-  14 1.42  24 1.43  26 1.43
  26  0.055  0.444  0.499-  39 1.42  37 1.42  25 1.43
  27  0.166  0.333  0.500-  28 1.42  16 1.43  14 1.43
  28  0.220  0.444  0.502-  41 1.41  27 1.42  39 1.42
  29  0.336  0.338  0.503-  30 1.42  18 1.44  16 1.44
  30  0.388  0.449  0.509-  41 1.41  29 1.42  71 2.00
  31  0.503  0.337  0.503-  32 1.42  18 1.43  20 1.44
  32  0.561  0.448  0.510-  43 1.41  31 1.42  71 1.99
  33  0.668  0.333  0.500-  34 1.42  20 1.42  22 1.42
  34  0.725  0.444  0.502-  43 1.41  33 1.42  45 1.42
  35  0.833  0.332  0.498-  22 1.42  24 1.42  36 1.42
  36  0.890  0.444  0.498-  45 1.41  37 1.42  35 1.42
  37  0.000  0.500  0.498-  26 1.42  36 1.42  38 1.42
  38  0.056  0.611  0.498-  47 1.42  49 1.42  37 1.42
  39  0.165  0.500  0.500-  26 1.42  28 1.42  40 1.42
  40  0.221  0.612  0.500-  49 1.41  39 1.42  51 1.43
  41  0.330  0.500  0.505-  30 1.41  28 1.41  42 1.43
  42  0.385  0.612  0.505-  51 1.41  53 1.41  41 1.43
  43  0.670  0.499  0.505-  32 1.41  34 1.41  44 1.44
  44  0.727  0.612  0.505-  55 1.41  57 1.41  43 1.44
  45  0.835  0.500  0.500-  36 1.41  34 1.42  46 1.42
  46  0.891  0.611  0.500-  47 1.41  57 1.42  45 1.42
  47  0.001  0.667  0.498-  46 1.41  38 1.42  48 1.42
  48  0.057  0.779  0.498-  47 1.42  59 1.43  61 1.43
  49  0.167  0.667  0.499-  40 1.41  38 1.42  50 1.42
  50  0.223  0.779  0.498-  49 1.42  61 1.43  63 1.43
  51  0.332  0.668  0.501-  42 1.41  52 1.42  40 1.43
  52  0.389  0.779  0.500-  65 1.41  51 1.42  63 1.42
  53  0.495  0.664  0.511-  54 1.40  42 1.41  71 2.02
  54  0.552  0.774  0.504-  53 1.40  65 1.43  67 1.44
  55  0.668  0.663  0.509-  44 1.41  56 1.41  71 1.98
  56  0.719  0.773  0.503-  55 1.41  67 1.44  69 1.45
  57  0.836  0.667  0.501-  44 1.41  58 1.42  46 1.42
  58  0.890  0.778  0.500-  57 1.42  69 1.43  59 1.43
  59  0.001  0.834  0.498-  60 1.42  48 1.43  58 1.43
  60  0.057  0.945  0.498-  59 1.42   1 1.42   3 1.43
  61  0.168  0.835  0.498-  62 1.42  48 1.43  50 1.43
  62  0.223  0.946  0.498-  61 1.42   3 1.43   5 1.43
  63  0.334  0.835  0.498-  64 1.42  52 1.42  50 1.43
  64  0.389  0.946  0.498-  63 1.42   7 1.42   5 1.42
  65  0.499  0.832  0.500-  52 1.41  66 1.41  54 1.43
  66  0.554  0.942  0.498-  65 1.41   9 1.42   7 1.43
  67  0.664  0.830  0.503-  68 1.41  54 1.44  56 1.44
  68  0.721  0.941  0.499-  67 1.41  11 1.43   9 1.43
  69  0.832  0.831  0.500-  70 1.42  58 1.43  56 1.45
  70  0.888  0.943  0.498-  69 1.42  11 1.42   1 1.44
  71  0.529  0.556  0.554-  55 1.98  32 1.99  30 2.00  53 2.02

IMPORTANT INFORMATION: All symmetrisations will be switched off!
NOSYMM: (Re-)initialisation of all symmetry stuff for point group C_1.

 KPOINTS: K-Points

Automatic generation of k-mesh.
Space group operators:
 irot       det(A)        alpha          n_x          n_y          n_z        tau_x        tau_y        tau_z
    1     1.000000     0.000000     1.000000     0.000000     0.000000     0.000000     0.000000     0.000000

 Subroutine IBZKPT returns following result:

 Found      4 irreducible k-points:

 Following reciprocal coordinates:
            Coordinates               Weight
  0.000000  0.000000  0.000000      1.000000
  0.500000  0.000000  0.000000      1.000000
 -0.000000  0.500000  0.000000      1.000000
  0.500000  0.500000  0.000000      1.000000

 Following cartesian coordinates:
            Coordinates               Weight
  0.000000  0.000000  0.000000      1.000000
  0.033662  0.019596  0.000000      1.000000
  0.000026  0.039192  0.000000      1.000000
  0.033688  0.058788  0.000000      1.000000

 SYSTEM =  unknown system
 POSCAR =  POSCAR-clean

 Startparameter for this run:
   NWRITE =      2    write-flag & timer
   PREC   = accura    normal or accurate (medium, high low for compatibility)
   ISTART =      0    job   : 0-new  1-cont  2-samecut
   ICHARG =      2    charge: 1-file 2-atom 10-const
   ISPIN  =      2    spin polarized calculation?
   LNONCOLLINEAR =      F non collinear calculations
   LSORBIT =      F    spin-orbit coupling
   INIWAV =      1    electr: 0-lowe 1-rand  2-diag
   LASPH  =      F    aspherical Exc in radial PAW
   METAGGA=      F    non-selfconsistent MetaGGA calc.

 Electronic Relaxation 1
   ENCUT  =  440.0 eV  32.34 Ry    5.69 a.u.  25.41 25.26 25.66*2*pi/ulx,y,z
   ENINI  =  440.0     initial cutoff
   ENAUG  =  644.9 eV  augmentation charge cutoff
   NELM   =     50;   NELMIN=  2; NELMDL= -5     # of ELM steps
   EDIFF  = 0.1E-04   stopping-criterion for ELM
   LREAL  =      T    real-space projection
   NLSPLINE    = F    spline interpolate recip. space projectors
   LCOMPAT=      F    compatible to vasp.4.4
   GGA_COMPAT  = T    GGA compatible to vasp.4.4-vasp.4.6
   LMAXPAW     = -100 max onsite density
   LMAXMIX     =    2 max onsite mixed and CHGCAR
   VOSKOWN=      0    Vosko Wilk Nusair interpolation
   ROPT   =   -0.00025  -0.00025  -0.00025  -0.00025
 Ionic relaxation
   EDIFFG = -.5E-01   stopping-criterion for IOM
   NSW    =    400    number of steps for IOM
   NBLOCK =      1;   KBLOCK =    400    inner block; outer block
   IBRION =      2    ionic relax: 0-MD 1-quasi-New 2-CG
   NFREE  =      1    steps in history (QN), initial steepest desc. (CG)
   ISIF   =      2    stress and relaxation
   IWAVPR =     11    prediction:  0-non 1-charg 2-wave 3-comb
   ISYM   =      0    0-nonsym 1-usesym 2-fastsym
   LCORR  =      T    Harris-Foulkes like correction to forces

   POTIM  = 0.3000    time-step for ionic-motion
   TEIN   =    0.0    initial temperature
   TEBEG  =    0.0;   TEEND  =   0.0 temperature during run
   SMASS  =  -3.00    Nose mass-parameter (am)
   estimated Nose-frequenzy (Omega)   =  0.10E-29 period in steps =****** mass=  -0.505E-26a.u.
   SCALEE = 1.0000    scale energy and forces
   NPACO  =    256;   APACO  = 16.0  distance and # of slots for P.C.
   PSTRESS=    0.0 pullay stress

  Mass of Ions in am
   POMASS =  12.01 14.00 12.01 52.00
  Ionic Valenz
   ZVAL   =   4.00  5.00  4.00 12.00
  Atomic Wigner-Seitz radii
  virtual crystal weights
   VCA    =   1.00  1.00  1.00  1.00
   NELECT =     293.0000    total number of electrons
   NUPDOWN=      -1.0000    fix difference up-down

 DOS related values:
   EMIN   =  10.00;   EMAX   =-10.00  energy-range for DOS
   EFERMI =   0.00
   ISMEAR =     0;   SIGMA  =   0.10  broadening in eV -4-tet -1-fermi 0-gaus

 Electronic relaxation 2 (details)
   IALGO  =     68    algorithm
   LDIAG  =      T    sub-space diagonalisation (order eigenvalues)
   LSUBROT=      F    optimize rotation matrix (better conditioning)
   TURBO    =      0    0=normal 1=particle mesh
   IRESTART =      0    0=no restart 2=restart with 2 vectors
   NREBOOT  =      0    no. of reboots
   NMIN     =      0    reboot dimension
[...]

 FORCES acting on ions
    electron-ion (+dipol)            ewald-force                    non-local-force                 convergence-correction
   0.656E+00 -.137E+01 0.476E+01   -.586E+00 0.140E+01 -.473E+01   -.633E-01 -.333E-01 -.445E-01   0.480E-02 0.669E-02 0.851E-03
   -.180E+01 -.170E+01 0.580E+01   0.192E+01 0.181E+01 -.582E+01   -.134E+00 -.106E+00 0.881E-02   0.105E-02 0.538E-02 0.597E-03
   0.255E+00 0.432E+00 0.685E+01   -.387E+00 -.321E+00 -.686E+01   0.120E+00 -.120E+00 0.206E-01   0.210E-02 -.173E-02 0.141E-03
   0.380E+00 0.467E+00 0.555E+01   -.425E+00 -.352E+00 -.551E+01   0.512E-01 -.120E+00 -.417E-01   -.421E-02 -.363E-02 0.263E-03
   0.325E+01 -.540E+00 0.813E+01   -.366E+01 0.889E+00 -.816E+01   0.418E+00 -.351E+00 0.280E-01   0.596E-03 -.107E-01 0.504E-03
   0.428E+01 0.824E+00 0.920E+01   -.445E+01 -.553E+00 -.926E+01   0.172E+00 -.264E+00 0.505E-01   -.156E-02 -.148E-01 0.110E-02
   0.282E+01 -.862E+01 0.602E+01   -.370E+01 0.949E+01 -.604E+01   0.880E+00 -.867E+00 0.142E-01   -.903E-03 -.890E-02 0.579E-03
   0.303E+01 -.220E+01 0.487E+01   -.307E+01 0.285E+01 -.484E+01   0.542E-01 -.649E+00 -.427E-01   0.238E-02 -.886E-02 0.782E-03
   -.560E+01 -.110E+02 0.517E+01   0.666E+01 0.118E+02 -.514E+01   -.105E+01 -.803E+00 -.333E-01   -.751E-02 0.155E-02 0.252E-04
   -.363E+01 -.353E+01 0.699E+01   0.367E+01 0.406E+01 -.701E+01   -.416E-01 -.524E+00 0.308E-01   -.635E-03 -.941E-04 -.769E-03
   -.128E+01 -.407E+01 0.971E+01   0.160E+01 0.421E+01 -.979E+01   -.324E+00 -.151E+00 0.729E-01   0.890E-03 0.134E-01 0.126E-02
   -.247E+01 -.254E+01 0.843E+01   0.256E+01 0.261E+01 -.845E+01   -.910E-01 -.589E-01 0.237E-01   0.357E-02 0.754E-02 0.629E-03
   0.176E+00 0.305E+01 0.704E+01   -.148E+00 -.302E+01 -.705E+01   -.277E-01 -.507E-01 -.666E-03   0.216E-02 0.740E-02 0.106E-02
   0.213E-01 0.163E+01 0.791E+01   0.309E-01 -.161E+01 -.794E+01   -.756E-01 -.329E-01 0.272E-01   0.464E-02 0.950E-02 0.747E-03
   0.244E+01 0.203E+01 0.718E+01   -.238E+01 -.177E+01 -.724E+01   -.638E-01 -.251E+00 0.718E-01   -.255E-02 0.239E-02 0.220E-03
   -.181E+01 0.679E+01 0.592E+01   0.238E+01 -.644E+01 -.597E+01   -.556E+00 -.353E+00 0.513E-01   -.124E-01 0.939E-03 0.379E-03
   0.218E+01 0.683E+01 0.846E+01   -.225E+01 -.640E+01 -.850E+01   0.829E-01 -.403E+00 0.421E-01   -.130E-01 -.145E-01 0.900E-03
   0.802E+01 0.864E+01 0.974E+01   -.829E+01 -.796E+01 -.941E+01   0.310E+00 -.639E+00 -.344E+00   -.255E-01 -.243E-01 0.272E-02
   -.266E+01 0.493E+01 0.771E+01   0.244E+01 -.469E+01 -.771E+01   0.217E+00 -.210E+00 0.332E-02   0.683E-02 -.171E-01 0.151E-02
   -.192E+01 0.824E+01 0.133E+02   0.154E+01 -.799E+01 -.135E+02   0.345E+00 -.213E+00 0.187E+00   0.126E-01 -.241E-01 0.119E-02
   -.201E+01 -.113E+01 0.627E+01   0.204E+01 0.139E+01 -.630E+01   -.356E-01 -.276E+00 0.343E-01   0.475E-02 -.432E-02 -.201E-03
   -.338E+01 0.300E+01 0.416E+01   0.336E+01 -.283E+01 -.418E+01   0.167E-01 -.157E+00 0.199E-01   0.135E-01 -.112E-01 -.302E-03
   0.186E+00 0.764E-01 0.789E+01   -.717E-02 0.482E-01 -.788E+01   -.175E+00 -.123E+00 -.482E-02   0.501E-03 0.295E-02 -.943E-03
   -.108E+01 0.530E+00 0.862E+01   0.113E+01 -.455E+00 -.865E+01   -.687E-01 -.716E-01 0.455E-01   0.843E-02 0.396E-02 -.155E-02
   0.141E+01 0.235E+01 0.873E+01   -.134E+01 -.237E+01 -.870E+01   -.877E-01 0.157E-01 -.196E-01   0.719E-02 0.589E-02 -.442E-03
   0.209E+01 0.400E+01 0.989E+01   -.209E+01 -.408E+01 -.994E+01   -.291E-01 0.608E-01 0.493E-01   0.103E-01 0.452E-04 -.753E-04
   0.444E+01 0.984E+01 0.597E+01   -.420E+01 -.992E+01 -.590E+01   -.235E+00 0.823E-01 -.579E-01   -.596E-02 0.463E-02 0.330E-03
   0.993E+01 0.649E+01 0.696E+01   -.951E+01 -.645E+01 -.711E+01   -.418E+00 -.548E-01 0.163E+00   0.293E-03 0.113E-01 -.133E-03
   0.313E+01 0.150E+02 0.256E+01   -.291E+01 -.136E+02 -.264E+01   -.187E+00 -.137E+01 0.706E-01   -.307E-01 -.158E-01 0.304E-02
   -.230E+01 0.279E+02 -.151E+01   0.859E+01 -.239E+02 0.280E+01   -.625E+01 -.398E+01 -.129E+01   -.659E-01 -.490E-02 0.777E-02
   0.757E+00 0.214E+02 0.300E+02   -.111E+01 -.210E+02 -.303E+02   0.333E+00 -.325E+00 0.277E+00   0.627E-04 -.395E-01 0.101E-03
   0.519E+01 0.542E+02 0.701E+02   -.115E+02 -.517E+02 -.702E+02   0.632E+01 -.246E+01 0.143E+00   0.203E-01 -.538E-01 -.119E-01
   -.564E+01 0.948E+01 0.172E+01   0.549E+01 -.945E+01 -.179E+01   0.158E+00 -.801E-02 0.635E-01   0.169E-01 -.149E-01 0.801E-03
   -.143E+02 0.682E+01 -.137E+02   0.143E+02 -.681E+01 0.140E+02   -.636E-01 -.242E-02 -.301E+00   0.336E-01 -.124E-01 0.762E-03
   -.366E+01 0.274E+01 0.525E+01   0.365E+01 -.272E+01 -.521E+01   0.234E-01 -.291E-01 -.189E-01   0.998E-02 -.318E-02 -.194E-02
   -.499E+01 0.238E+01 0.405E+01   0.494E+01 -.239E+01 -.411E+01   0.590E-01 -.512E-02 0.779E-01   0.138E-01 0.653E-03 -.214E-02
   0.318E+00 0.209E+01 0.826E+01   -.304E+00 -.214E+01 -.828E+01   -.307E-01 0.642E-01 0.239E-01   0.121E-01 -.439E-03 -.166E-02
   0.599E+00 -.787E+00 0.857E+01   -.723E+00 0.695E+00 -.858E+01   0.111E+00 0.765E-01 0.233E-01   0.118E-01 0.285E-02 -.175E-02
   0.505E+01 0.354E+01 0.824E+01   -.498E+01 -.378E+01 -.822E+01   -.812E-01 0.219E+00 -.252E-01   0.813E-02 0.487E-02 0.547E-03
   0.465E+01 0.152E+01 0.866E+01   -.507E+01 -.186E+01 -.867E+01   0.406E+00 0.356E+00 0.616E-02   0.111E-01 0.578E-03 0.937E-03
   0.203E+02 0.129E+02 0.637E+00   -.189E+02 -.136E+02 -.796E+00   -.134E+01 0.729E+00 0.172E+00   -.304E-01 0.188E-01 0.573E-02
   0.200E+02 0.605E+00 -.216E+01   -.185E+02 -.114E+01 0.220E+01   -.137E+01 0.553E+00 -.246E-01   -.321E-01 -.774E-02 0.578E-02
   -.412E+02 0.146E+02 0.130E+02   0.413E+02 -.155E+02 -.146E+02   -.224E+00 0.876E+00 0.151E+01   0.488E-01 -.202E-01 0.874E-02
   -.409E+02 -.142E+02 0.160E+02   0.411E+02 0.150E+02 -.175E+02   -.249E+00 -.846E+00 0.148E+01   0.496E-01 0.204E-01 0.995E-02
   -.847E+01 0.740E+00 -.852E+01   0.847E+01 -.744E+00 0.867E+01   -.250E-01 -.203E-01 -.144E+00   0.238E-01 0.754E-03 -.188E-02
   -.820E+01 -.982E+00 -.772E+01   0.818E+01 0.973E+00 0.789E+01   -.941E-02 0.198E-01 -.155E+00   0.246E-01 0.157E-02 -.228E-02
   -.393E+01 -.212E+01 0.498E+01   0.384E+01 0.213E+01 -.504E+01   0.102E+00 0.380E-02 0.788E-01   0.137E-01 0.455E-03 -.216E-02
   -.219E+01 -.426E+01 0.643E+01   0.203E+01 0.425E+01 -.640E+01   0.159E+00 0.152E-01 -.108E-01   0.134E-01 0.436E-02 -.203E-02
   0.601E+01 -.759E+00 0.101E+02   -.618E+01 0.593E+00 -.102E+02   0.150E+00 0.171E+00 0.440E-01   0.117E-01 0.520E-02 -.564E-04
   0.475E+01 -.331E+01 0.859E+01   -.527E+01 0.302E+01 -.856E+01   0.508E+00 0.302E+00 -.233E-01   0.866E-02 -.266E-02 -.473E-03
   0.170E+02 0.460E+01 0.784E+01   -.169E+02 -.623E+01 -.808E+01   -.162E+00 0.164E+01 0.250E+00   0.442E-02 -.700E-02 0.852E-03
   0.286E+02 0.490E+01 0.672E+01   -.337E+02 -.797E+01 -.678E+01   0.514E+01 0.307E+01 0.645E-01   -.887E-02 -.663E-02 0.131E-02
   -.102E+02 -.145E+02 -.161E+02   0.174E+02 0.887E+01 0.177E+02   -.720E+01 0.565E+01 -.163E+01   -.677E-01 0.615E-02 0.924E-02
   -.190E+02 -.363E+01 -.459E+01   0.243E+02 -.102E+01 0.506E+01   -.525E+01 0.464E+01 -.496E+00   -.329E-01 0.853E-02 0.425E-02
   0.339E+01 -.517E+02 0.753E+02   -.959E+01 0.489E+02 -.756E+02   0.620E+01 0.272E+01 0.337E+00   0.168E-01 0.545E-01 -.738E-02
   -.241E+01 -.218E+02 0.302E+02   0.253E+01 0.211E+02 -.305E+02   -.132E+00 0.660E+00 0.329E+00   0.517E-03 0.400E-01 0.187E-02
   -.152E+02 -.692E+01 -.108E+02   0.152E+02 0.692E+01 0.111E+02   -.867E-01 -.668E-02 -.272E+00   0.346E-01 0.127E-01 0.268E-03
   -.629E+01 -.112E+02 0.425E+01   0.622E+01 0.112E+02 -.433E+01   0.802E-01 -.184E-01 0.744E-01   0.168E-01 0.157E-01 0.342E-03
   -.291E+01 -.322E+01 0.547E+01   0.287E+01 0.325E+01 -.549E+01   0.381E-01 -.439E-01 0.192E-01   0.142E-01 0.123E-01 -.261E-03
   -.164E+01 -.392E+01 0.641E+01   0.163E+01 0.393E+01 -.644E+01   0.164E-02 -.700E-02 0.245E-01   0.709E-02 0.516E-02 0.376E-03
   0.181E+01 -.631E-01 0.874E+01   -.201E+01 0.891E-01 -.876E+01   0.187E+00 -.286E-01 0.418E-01   0.117E-01 -.199E-02 -.141E-02
   0.271E+01 -.286E+01 0.767E+01   -.289E+01 0.291E+01 -.766E+01   0.180E+00 -.502E-01 -.701E-02   0.723E-03 -.472E-02 -.371E-03
   0.117E+02 0.581E-01 0.777E+01   -.130E+02 0.361E+00 -.782E+01   0.130E+01 -.385E+00 0.444E-01   0.570E-02 -.135E-01 0.811E-03
   0.831E+01 -.735E+01 0.686E+01   -.904E+01 0.779E+01 -.688E+01   0.728E+00 -.422E+00 0.155E-01   0.145E-02 -.111E-01 0.734E-03
   -.417E+01 -.684E+01 0.784E+01   0.621E+01 0.592E+01 -.808E+01   -.202E+01 0.916E+00 0.240E+00   -.233E-01 -.334E-02 -.921E-03
   0.159E+01 -.295E+02 0.734E+01   -.143E+01 0.355E+02 -.744E+01   -.168E+00 -.594E+01 0.116E+00   -.660E-02 -.570E-02 0.607E-03
   -.376E+01 -.619E+01 0.863E+01   0.482E+01 0.596E+01 -.842E+01   -.102E+01 0.207E+00 -.218E+00   -.235E-01 0.199E-01 0.382E-02
   -.633E+01 -.117E+02 0.828E+01   0.703E+01 0.117E+02 -.832E+01   -.690E+00 0.212E-01 0.379E-01   -.122E-01 0.131E-01 0.130E-02
   -.349E+01 -.773E+01 0.142E+02   0.329E+01 0.758E+01 -.144E+02   0.175E+00 0.116E+00 0.175E+00   0.120E-01 0.231E-01 0.993E-03
   -.504E+01 -.773E+01 0.798E+01   0.513E+01 0.766E+01 -.799E+01   -.945E-01 0.486E-01 0.135E-02   0.868E-02 0.151E-01 0.118E-02
   0.504E+02 0.377E+01 -.589E+03   -.574E+02 -.413E+01 0.572E+03   0.706E+01 0.339E+00 0.163E+02   -.534E-01 0.234E-01 0.351E+00
   -.207E+01 -.751E+00 -.182E+02   0.995E-13 0.732E-12 0.114E-12   0.197E+01 0.733E+00 0.178E+02   0.917E-01 0.198E-01 0.395E+00

 POSITION                                       TOTAL-FORCE (eV/Angst)
      0.00059      0.00547      7.47129         0.012064     -0.003374     -0.013765
      0.00257      1.42848      7.47069        -0.011178      0.000112     -0.010901
      2.47654      0.01675      7.46423        -0.009392     -0.009841      0.002357
      2.47539      1.43791      7.47631         0.002396     -0.006081     -0.002867
      4.95168      0.01027      7.45913         0.008725     -0.011588     -0.002805
      4.95238      1.43262      7.46490        -0.001165     -0.008262     -0.009492
      0.00487     12.73678      7.47367        -0.001006     -0.010182     -0.006987
      7.43678      1.39975      7.47416         0.017829      0.000584     -0.011032
      2.46980     12.72097      7.48084         0.002162      0.004392      0.002308
      9.89941      1.38464      7.46678        -0.001276      0.003847      0.008043
      4.94758     12.73523      7.46365        -0.000062      0.005211     -0.010523
     12.37750      1.39534      7.45795         0.002337      0.009064     -0.002492
     13.61430      2.11214      7.46459         0.004116     -0.011789     -0.004527
     -1.24591      3.54081      7.47188        -0.018082     -0.011113     -0.004133
      1.24150      2.15044      7.48098        -0.003266      0.009367      0.009961
      1.24420      3.58103      7.51330         0.005171     -0.006564      0.003612
      3.71447      2.15518      7.48020        -0.001637      0.017746      0.006498
      3.71357      3.57353      7.51430         0.007896      0.028509     -0.004612
      6.19581      2.12068      7.47277        -0.000442      0.007162     -0.001270
      6.19634      3.54277      7.48341        -0.027440      0.021083     -0.013990
      8.67131      2.10328      7.47283         0.001193     -0.011921      0.004026
      8.67352      3.52671      7.48929         0.008070      0.005411      0.000425
     11.14034      2.09951      7.45902         0.004639      0.004306      0.004740
     11.14258      3.52239      7.46155        -0.003385      0.006816      0.014235
     12.37739      4.23658      7.46396        -0.005655     -0.000740      0.007041
     -2.48567      5.67198      7.46929        -0.019850     -0.017620      0.003027
     -0.00912      4.25706      7.50343        -0.004484      0.011247      0.010216
     -0.02686      5.67307      7.52670         0.007816     -0.008131      0.014924
      2.48263      4.32626      7.57065         0.014342      0.007920     -0.009492
      2.46139      5.75077      7.68664        -0.011634     -0.002876      0.001940
      4.95849      4.26743      7.48577        -0.025966     -0.003357     -0.024764
      4.98374      5.67677      7.53483         0.006886      0.028996     -0.001488
      7.44148      4.23956      7.51775         0.022934      0.007454     -0.006006
      7.45688      5.65675      7.57784        -0.018899      0.004320     -0.013982
      9.90739      4.23591      7.48157         0.021179     -0.004652      0.019754
      9.91005      5.65808      7.49758         0.020218     -0.016433      0.016239
     -3.71618      6.38159      7.47477        -0.004392      0.007379      0.008991
     -3.71747      7.80172      7.47334        -0.001618     -0.012335      0.009873
     -1.25863      6.38659      7.49218        -0.005662     -0.021185     -0.000121
     -1.26035      7.80730      7.49155        -0.007023      0.021692      0.000073
      1.19625      6.37991      7.61151         0.024774     -0.023840      0.015929
      1.19117      7.80528      7.62077         0.025590      0.015496      0.015103
      6.22181      6.36362      7.57454         0.008147      0.026485     -0.030627
      6.22063      7.80280      7.56608         0.008440     -0.028578     -0.035596
      8.68460      6.37035      7.55240        -0.000791     -0.023213      0.002931
      8.68346      7.79408      7.54850        -0.000496      0.012046      0.006600
     -4.94921      8.51474      7.49301         0.019789      0.017382      0.021738
     -4.95122      9.93571      7.47560         0.012891      0.008797      0.021140
     -2.48546      8.51273      7.46855        -0.012952      0.011307      0.001512
     -2.47475      9.93272      7.46428        -0.004906      0.006312      0.006865
     -0.01975      8.51898      7.52787        -0.003101      0.019867      0.012291
      0.00044      9.93232      7.50552         0.007592     -0.005581      0.006989
      2.44276      8.44946      7.71836        -0.012596     -0.002997     -0.006704
      2.46345      9.85721      7.59211         0.002390     -0.001522     -0.015580
      4.97805      8.48500      7.52250         0.005215     -0.039155     -0.006955
      4.94100      9.89249      7.48419        -0.020226     -0.009455     -0.026575
      7.45486      8.50753      7.56723        -0.021819      0.001378     -0.006688
      7.43484      9.92371      7.50728         0.021264      0.002030     -0.002336
     -6.18774     10.64544      7.48169         0.008410      0.002080      0.002547
     -6.18979     12.06592      7.46884        -0.002489      0.006801     -0.000387
     -3.71127     10.64612      7.45964        -0.001561     -0.003477      0.012799
     -3.71593     12.06521      7.45826         0.005081     -0.006616      0.000819
     -1.23468     10.64250      7.47415        -0.020519      0.019891     -0.004643
     -1.24612     12.05833      7.46701         0.000841      0.004189     -0.002856
      1.23428     10.60352      7.51839        -0.002802     -0.005902      0.004078
      1.23810     12.01448      7.48623        -0.012275     -0.000620      0.009607
      3.69772     10.60114      7.52088         0.004143     -0.017917     -0.006027
      3.71257     12.01431      7.48342        -0.005717     -0.009367      0.003332
      6.18571     10.61837      7.47810        -0.014741     -0.013777     -0.010625
      6.18938     12.03810      7.46984         0.007718     -0.004410     -0.002786
      3.92318      7.08233      8.23753        -0.011750      0.007791      0.021073
    total drift:                               -0.004517      0.001546     -0.000129

  FREE ENERGIE OF THE ION-ELECTRON SYSTEM (eV)
  free  energy   TOTEN  =      -653.12564475 eV

  energy  without entropy=     -653.07786995  energy(sigma->0) =     -653.10175735

 d Force = 0.6523199E-03[ 0.488E-03, 0.816E-03]  d Energy = 0.2583821E-03 0.394E-03
 d Force = 0.7662091E+00[ 0.769E+00, 0.763E+00]  d Ewald  = 0.7662093E+00-0.180E-06

 stress matrix after NEB project (eV)
     -8.91772      0.24430      0.03830
      0.24430     -1.39424      0.00535
      0.03830      0.00535     -3.31859
  FORCES: max atom, RMS     0.046422    0.021403
  FORCE total and by dimension    0.180342    0.039155
  Stress total and by dimension    9.623154    8.917723
 Conjugate gradient step on ions:
 trial-energy change:   -0.000258  1 .order   -0.000652   -0.000816   -0.000488
  (g-gl).g = 0.189E-02      g.g   = 0.185E-02  gl.gl    = 0.183E-02
 g(Force)  = 0.185E-02   g(Stress)= 0.000E+00 ortho     = 0.700E-04
 gamma     =   1.03573
 trial     =   0.42478
 opt step  =   1.05695  (harmonic =   1.05695) maximal distance =0.00264328
 next E    =  -653.126402   (d E  =  -0.00102)

 reached required accuracy - stopping structural energy minimisation