 vasp.5.4.4.18Apr17-6-g9f103f2a35 (build Sep 02 2021 13:24:58) complex

 executed on             LinuxIFC date 2023.01.15  13:02:11

 INCAR:
 POTCAR:    PAW_PBE C 08Apr2002
 POTCAR:    PAW_PBE N 08Apr2002
 POTCAR:    PAW_PBE C 08Apr2002
 POTCAR:    PAW_PBE Cr_pv 02Aug2007
 POTCAR:    PAW_PBE C 08Apr2002
   VRHFIN =C: s2p2

   TITEL  = PAW_PBE C 08Apr2002
   POMASS =   12.011; ZVAL   =    4.000    mass and valenz
   ENMAX  =  400.000; ENMIN  =  300.000 eV

[...]

   TITEL  = PAW_PBE C 08Apr2002
   POMASS =   12.011; ZVAL   =    4.000    mass and valenz
   ENMAX  =  400.000; ENMIN  =  300.000 eV

   TITEL  = PAW_PBE Cr_pv 02Aug2007
   POMASS =   51.996; ZVAL   =   12.000    mass and valenz
   ENMAX  =  265.681; ENMIN  =  199.261 eV

 Optimization of the real space projectors (new method)

 maximal supplied QI-value         = 25.13
 optimisation between [QCUT,QGAM] = [ 11.81, 23.88] = [ 39.08,159.64] Ry
 Optimized for a Real-space Cutoff    1.18 Angstroem

   l    n(q)    QCUT    max X(q) W(low)/X(q) W(high)/X(q)  e(spline)
   0      8    11.813   115.676    0.10E-03    0.16E-03    0.35E-06
   0      8    11.813    87.132    0.10E-03    0.16E-03    0.35E-06
   1      8    11.813     4.429    0.16E-03    0.13E-04    0.22E-06
   1      8    11.813     2.733    0.13E-03    0.10E-04    0.18E-06
 Optimization of the real space projectors (new method)

[...]

   l    n(q)    QCUT    max X(q) W(low)/X(q) W(high)/X(q)  e(spline)
   0      8    11.813   115.676    0.10E-03    0.16E-03    0.35E-06
   0      8    11.813    87.132    0.10E-03    0.16E-03    0.35E-06
   1      8    11.813     4.429    0.16E-03    0.13E-04    0.22E-06
   1      8    11.813     2.733    0.13E-03    0.10E-04    0.18E-06
 Optimization of the real space projectors (new method)

 maximal supplied QI-value         = 16.25
 optimisation between [QCUT,QGAM] = [ 11.86, 23.89] = [ 39.41,159.82] Ry
 Optimized for a Real-space Cutoff    1.33 Angstroem

   l    n(q)    QCUT    max X(q) W(low)/X(q) W(high)/X(q)  e(spline)
   1      9    11.864     3.262    0.48E-04    0.16E-03    0.14E-06
   1      9    11.864     5.741    0.74E-04    0.40E-03    0.35E-06
   2      9    11.864    60.438    0.17E-03    0.21E-03    0.26E-06
   2      9    11.864    55.380    0.17E-03    0.21E-03    0.27E-06
   0      9    11.864    80.273    0.40E-04    0.47E-04    0.12E-06
   0      9    11.864    36.654    0.35E-04    0.41E-04    0.11E-06
  PAW_PBE C 08Apr2002                   :
  PAW_PBE N 08Apr2002                   :
  PAW_PBE C 08Apr2002                   :
  PAW_PBE Cr_pv 02Aug2007               :

 POSCAR: POSCAR-clean
  positions in cartesian coordinates
 exchange correlation table for  LEXCH =        8
   RHO(1)=    0.500       N(1)  =     2000
   RHO(2)=  100.500       N(2)  =     4000

 ion  position               nearest neighbor table
   1  0.000  1.000  0.498-   2 1.42  60 1.42  70 1.43
   2  0.056  0.111  0.498-   1 1.42  13 1.42  15 1.43
   3  0.168  0.002  0.498-   4 1.42  62 1.43  60 1.43
   4  0.224  0.113  0.498-   3 1.42  15 1.42  17 1.44
   5  0.334  0.002  0.498-   6 1.42  62 1.43  64 1.43
   6  0.390  0.113  0.498-   5 1.42  19 1.42  17 1.44
   7  0.500  1.000  0.498-   8 1.42  64 1.42  66 1.43
   8  0.556  0.111  0.498-   7 1.42  21 1.42  19 1.43
   9  0.666  0.998  0.498-  10 1.42  66 1.42  68 1.44
  10  0.722  0.109  0.498-   9 1.42  23 1.43  21 1.43
  11  0.832  0.998  0.498-  12 1.42  70 1.42  68 1.44
  12  0.888  0.109  0.498-  11 1.42  23 1.43  13 1.43
  13  0.999  0.165  0.498-  14 1.42   2 1.42  12 1.43
  14  0.054  0.277  0.499-  13 1.42  25 1.42  27 1.43
  15  0.167  0.168  0.498-  16 1.42   4 1.42   2 1.43
  16  0.223  0.280  0.500-  15 1.42  27 1.43  29 1.44
  17  0.335  0.170  0.499-  18 1.42   4 1.44   6 1.44
  18  0.391  0.281  0.503-  17 1.42  31 1.44  29 1.44
  19  0.501  0.168  0.498-  20 1.42   6 1.42   8 1.43
  20  0.557  0.280  0.500-  19 1.42  33 1.43  31 1.44
  21  0.667  0.165  0.498-  22 1.42   8 1.42  10 1.43
  22  0.723  0.277  0.498-  21 1.42  35 1.42  33 1.43
  23  0.833  0.165  0.498-  24 1.42  10 1.43  12 1.43
  24  0.888  0.276  0.498-  23 1.42  25 1.42  35 1.43
  25  0.999  0.332  0.498-  14 1.42  26 1.42  24 1.42
  26  0.054  0.444  0.499-  39 1.42  37 1.42  25 1.42
  27  0.165  0.333  0.500-  28 1.42  16 1.43  14 1.43
  28  0.219  0.444  0.502-  41 1.41  27 1.42  39 1.42
  29  0.335  0.338  0.503-  30 1.41  18 1.44  16 1.44
  30  0.387  0.448  0.510-  41 1.41  29 1.41  71 2.00
  31  0.503  0.338  0.504-  32 1.41  18 1.44  20 1.44
  32  0.562  0.448  0.510-  43 1.41  31 1.41  71 2.00
  33  0.668  0.333  0.500-  34 1.42  20 1.43  22 1.43
  34  0.725  0.444  0.501-  43 1.41  33 1.42  45 1.42
  35  0.833  0.332  0.498-  22 1.42  36 1.42  24 1.43
  36  0.890  0.444  0.498-  45 1.42  37 1.42  35 1.42
  37  0.000  0.500  0.498-  36 1.42  26 1.42  38 1.42
  38  0.056  0.611  0.498-  47 1.42  49 1.42  37 1.42
  39  0.165  0.500  0.500-  26 1.42  28 1.42  40 1.42
  40  0.220  0.611  0.500-  49 1.42  51 1.42  39 1.42
  41  0.329  0.499  0.505-  30 1.41  28 1.41  42 1.44
  42  0.385  0.612  0.505-  53 1.41  51 1.41  41 1.44
  43  0.671  0.499  0.505-  32 1.41  34 1.41  44 1.44
  44  0.727  0.612  0.505-  55 1.41  57 1.41  43 1.44
  45  0.836  0.500  0.499-  36 1.42  34 1.42  46 1.42
  46  0.891  0.611  0.499-  47 1.42  57 1.42  45 1.42
  47  0.001  0.667  0.498-  46 1.42  38 1.42  48 1.42
  48  0.057  0.779  0.498-  59 1.42  47 1.42  61 1.43
  49  0.166  0.667  0.499-  40 1.42  38 1.42  50 1.42
  50  0.222  0.779  0.498-  63 1.42  49 1.42  61 1.42
  51  0.331  0.667  0.502-  42 1.41  52 1.42  40 1.42
  52  0.388  0.778  0.500-  51 1.42  65 1.43  63 1.43
  53  0.494  0.663  0.510-  42 1.41  54 1.41  71 2.00
  54  0.553  0.773  0.503-  53 1.41  67 1.44  65 1.44
  55  0.669  0.663  0.510-  44 1.41  56 1.41  71 2.00
  56  0.721  0.773  0.504-  55 1.41  67 1.44  69 1.44
  57  0.837  0.667  0.501-  44 1.41  58 1.42  46 1.42
  58  0.891  0.778  0.500-  57 1.42  69 1.42  59 1.43
  59  0.002  0.835  0.498-  60 1.42  48 1.42  58 1.43
  60  0.057  0.946  0.498-  59 1.42   1 1.42   3 1.43
  61  0.168  0.835  0.498-  62 1.42  50 1.42  48 1.43
  62  0.223  0.946  0.498-  61 1.42   3 1.43   5 1.43
  63  0.333  0.835  0.499-  64 1.42  50 1.42  52 1.43
  64  0.389  0.946  0.498-  63 1.42   7 1.42   5 1.43
  65  0.499  0.832  0.500-  66 1.42  52 1.43  54 1.44
  66  0.555  0.943  0.498-  65 1.42   9 1.42   7 1.43
  67  0.665  0.830  0.503-  68 1.42  56 1.44  54 1.44
  68  0.721  0.941  0.499-  67 1.42   9 1.44  11 1.44
  69  0.833  0.832  0.500-  70 1.42  58 1.42  56 1.44
  70  0.889  0.943  0.498-  69 1.42  11 1.42   1 1.43
  71  0.528  0.556  0.554-  55 2.00  32 2.00  53 2.00  30 2.00

IMPORTANT INFORMATION: All symmetrisations will be switched off!
NOSYMM: (Re-)initialisation of all symmetry stuff for point group C_1.

 KPOINTS: K-Points

Automatic generation of k-mesh.
Space group operators:
 irot       det(A)        alpha          n_x          n_y          n_z        tau_x        tau_y        tau_z
    1     1.000000     0.000000     1.000000     0.000000     0.000000     0.000000     0.000000     0.000000

 Subroutine IBZKPT returns following result:

 Found      4 irreducible k-points:

 Following reciprocal coordinates:
            Coordinates               Weight
  0.000000  0.000000  0.000000      1.000000
  0.500000  0.000000  0.000000      1.000000
 -0.000000  0.500000  0.000000      1.000000
  0.500000  0.500000  0.000000      1.000000

 Following cartesian coordinates:
            Coordinates               Weight
  0.000000  0.000000  0.000000      1.000000
  0.033606  0.019589  0.000000      1.000000
 -0.000000  0.039178  0.000000      1.000000
  0.033606  0.058767  0.000000      1.000000

 SYSTEM =  unknown system
 POSCAR =  POSCAR-clean

 Startparameter for this run:
   NWRITE =      2    write-flag & timer
   PREC   = accura    normal or accurate (medium, high low for compatibility)
   ISTART =      0    job   : 0-new  1-cont  2-samecut
   ICHARG =      2    charge: 1-file 2-atom 10-const
   ISPIN  =      2    spin polarized calculation?
   LNONCOLLINEAR =      F non collinear calculations
   LSORBIT =      F    spin-orbit coupling
   INIWAV =      1    electr: 0-lowe 1-rand  2-diag
   LASPH  =      F    aspherical Exc in radial PAW
   METAGGA=      F    non-selfconsistent MetaGGA calc.

 Electronic Relaxation 1
   ENCUT  =  550.0 eV  40.42 Ry    6.36 a.u.  28.45 28.25 28.68*2*pi/ulx,y,z
   ENINI  =  550.0     initial cutoff
   ENAUG  =  644.9 eV  augmentation charge cutoff
   NELM   =     50;   NELMIN=  2; NELMDL= -5     # of ELM steps
   EDIFF  = 0.1E-04   stopping-criterion for ELM
   LREAL  =      T    real-space projection
   NLSPLINE    = F    spline interpolate recip. space projectors
   LCOMPAT=      F    compatible to vasp.4.4
   GGA_COMPAT  = T    GGA compatible to vasp.4.4-vasp.4.6
   LMAXPAW     = -100 max onsite density
   LMAXMIX     =    2 max onsite mixed and CHGCAR
   VOSKOWN=      0    Vosko Wilk Nusair interpolation
   ROPT   =   -0.00025  -0.00025  -0.00025  -0.00025
 Ionic relaxation
   EDIFFG = -.5E-01   stopping-criterion for IOM
   NSW    =    400    number of steps for IOM
   NBLOCK =      1;   KBLOCK =    400    inner block; outer block
   IBRION =      2    ionic relax: 0-MD 1-quasi-New 2-CG
   NFREE  =      1    steps in history (QN), initial steepest desc. (CG)
   ISIF   =      3    stress and relaxation
   IWAVPR =     11    prediction:  0-non 1-charg 2-wave 3-comb
   ISYM   =      0    0-nonsym 1-usesym 2-fastsym
   LCORR  =      T    Harris-Foulkes like correction to forces

   POTIM  = 0.3000    time-step for ionic-motion
   TEIN   =    0.0    initial temperature
   TEBEG  =    0.0;   TEEND  =   0.0 temperature during run
   SMASS  =  -3.00    Nose mass-parameter (am)
   estimated Nose-frequenzy (Omega)   =  0.10E-29 period in steps =****** mass=  -0.506E-26a.u.
   SCALEE = 1.0000    scale energy and forces
   NPACO  =    256;   APACO  = 16.0  distance and # of slots for P.C.
   PSTRESS=    0.0 pullay stress

  Mass of Ions in am
   POMASS =  12.01 14.00 12.01 52.00
  Ionic Valenz
   ZVAL   =   4.00  5.00  4.00 12.00
  Atomic Wigner-Seitz radii
  virtual crystal weights
   VCA    =   1.00  1.00  1.00  1.00
   NELECT =     293.0000    total number of electrons
   NUPDOWN=      -1.0000    fix difference up-down

 DOS related values:
   EMIN   =  10.00;   EMAX   =-10.00  energy-range for DOS
   EFERMI =   0.00
   ISMEAR =     0;   SIGMA  =   0.10  broadening in eV -4-tet -1-fermi 0-gaus

 Electronic relaxation 2 (details)
   IALGO  =     68    algorithm
   LDIAG  =      T    sub-space diagonalisation (order eigenvalues)
   LSUBROT=      F    optimize rotation matrix (better conditioning)
   TURBO    =      0    0=normal 1=particle mesh
   IRESTART =      0    0=no restart 2=restart with 2 vectors
   NREBOOT  =      0    no. of reboots
   NMIN     =      0    reboot dimension
   EREF     =   0.00    reference energy to select bands
   IMIX   =      4    mixing-type and parameters
     AMIX     =   0.40;   BMIX     =  1.00
     AMIX_MAG =   1.60;   BMIX_MAG =  1.00
     AMIN     =   0.10
     WC   =   100.;   INIMIX=   1;  MIXPRE=   1;  MAXMIX= -45

 Intra band minimization:
[...]
  Total       0.32834     0.31682    -0.74113    -0.00092     0.01139     0.00167
  in kB       0.18529     0.17879    -0.41824    -0.00052     0.00643     0.00094

 VOLUME and BASIS-vectors are now :
  energy-cutoff  :      550.00
  volume of cell :     2839.11
      direct lattice vectors                 reciprocal lattice vectors
    14.848061936 -0.000035172  0.000000000     0.067348950  0.039223679  0.000000000
    -7.424030968 12.747419585  0.000000000     0.000000186  0.078447357  0.000000000
     0.000000000  0.000000000 15.000000000     0.000000000  0.000000000  0.066666667

  length of vectors
    14.848061936 14.751709796 15.000000000     0.077938296  0.078447357  0.066666667

 FORCES acting on ions
    electron-ion (+dipol)            ewald-force                    non-local-force                 convergence-correction
   0.359E+01 0.871E+00 0.792E+01   -.377E+01 -.104E+01 -.795E+01   0.176E+00 0.178E+00 0.299E-01   -.344E-03 -.478E-03 0.163E-04
   0.135E+01 0.293E+01 0.784E+01   -.166E+01 -.312E+01 -.786E+01   0.278E+00 0.163E+00 0.230E-01   0.620E-03 0.404E-03 0.125E-04
   0.379E+01 0.355E+01 0.765E+01   -.381E+01 -.402E+01 -.769E+01   0.993E-02 0.468E+00 0.363E-01   -.524E-03 -.461E-03 0.177E-03
   0.453E+01 0.113E+02 0.697E+01   -.544E+01 -.120E+02 -.699E+01   0.907E+00 0.744E+00 0.272E-01   -.117E-03 0.873E-03 0.446E-03
   -.380E+01 0.356E+01 0.691E+01   0.381E+01 -.403E+01 -.694E+01   -.103E-01 0.469E+00 0.304E-01   0.542E-03 -.474E-03 0.578E-04
   -.453E+01 0.113E+02 0.634E+01   0.544E+01 -.120E+02 -.636E+01   -.908E+00 0.743E+00 0.197E-01   0.942E-04 0.913E-03 0.314E-03
   -.359E+01 0.863E+00 0.768E+01   0.376E+01 -.103E+01 -.770E+01   -.176E+00 0.179E+00 0.271E-01   0.353E-03 -.471E-03 0.139E-05
   -.135E+01 0.292E+01 0.800E+01   0.165E+01 -.311E+01 -.803E+01   -.279E+00 0.164E+00 0.259E-01   -.626E-03 0.440E-03 0.626E-05
   -.138E+01 -.172E+00 0.756E+01   0.148E+01 0.532E-01 -.757E+01   -.104E+00 0.137E+00 0.103E-01   -.214E-03 -.915E-03 -.699E-06
   0.193E+00 -.509E+00 0.756E+01   -.860E-01 0.363E+00 -.759E+01   -.113E+00 0.138E+00 0.268E-01   -.582E-04 -.933E-04 -.166E-03
   0.137E+01 -.164E+00 0.700E+01   -.148E+01 0.447E-01 -.701E+01   0.104E+00 0.137E+00 0.651E-02   0.188E-03 -.961E-03 -.123E-03
   -.187E+00 -.518E+00 0.681E+01   0.791E-01 0.372E+00 -.683E+01   0.113E+00 0.138E+00 0.214E-01   0.771E-04 -.768E-04 -.296E-03
   0.472E+01 0.546E+01 0.704E+01   -.488E+01 -.550E+01 -.705E+01   0.155E+00 0.466E-01 0.953E-02   0.452E-03 -.125E-03 -.257E-03
   0.460E+01 0.164E+01 0.627E+01   -.472E+01 -.168E+01 -.629E+01   0.102E+00 0.431E-01 0.194E-01   0.251E-03 0.676E-03 -.264E-03
   0.871E+01 0.103E+02 0.853E+01   -.932E+01 -.105E+02 -.854E+01   0.613E+00 0.158E+00 0.116E-01   -.115E-03 -.545E-03 -.683E-05
   0.785E+01 0.478E+01 0.110E+02   -.857E+01 -.490E+01 -.111E+02   0.720E+00 0.115E+00 0.122E+00   0.770E-03 0.522E-04 -.616E-03
   -.145E-01 0.315E+02 0.592E+01   0.148E-01 -.372E+02 -.604E+01   -.158E-03 0.564E+01 0.123E+00   0.249E-04 -.618E-04 0.198E-03
   -.851E-01 0.135E+02 0.716E+01   0.953E-01 -.121E+02 -.658E+01   -.108E-01 -.139E+01 -.587E+00   0.566E-05 0.649E-03 -.139E-02
   -.871E+01 0.103E+02 0.815E+01   0.932E+01 -.104E+02 -.816E+01   -.614E+00 0.159E+00 0.715E-02   0.114E-03 -.534E-03 -.162E-03
   -.779E+01 0.476E+01 0.108E+02   0.851E+01 -.488E+01 -.110E+02   -.718E+00 0.115E+00 0.122E+00   -.796E-03 0.901E-04 -.776E-03
   -.471E+01 0.545E+01 0.797E+01   0.487E+01 -.549E+01 -.799E+01   -.155E+00 0.471E-01 0.111E-01   -.486E-03 -.925E-04 -.933E-04
   -.457E+01 0.162E+01 0.772E+01   0.468E+01 -.167E+01 -.775E+01   -.101E+00 0.432E-01 0.286E-01   -.255E-03 0.675E-03 -.228E-04
   0.130E-02 0.211E+01 0.608E+01   -.163E-02 -.213E+01 -.607E+01   0.413E-03 0.293E-01 -.184E-01   -.961E-05 -.402E-03 -.286E-03
   -.225E-02 0.203E+01 0.607E+01   0.112E-02 -.207E+01 -.610E+01   0.135E-02 0.377E-01 0.215E-01   -.483E-05 0.150E-03 -.268E-03
   0.179E+01 0.422E+01 0.527E+01   -.184E+01 -.421E+01 -.525E+01   0.575E-01 0.290E-03 -.221E-01   0.772E-03 0.513E-04 -.349E-03
   0.361E+01 0.277E+01 0.583E+01   -.361E+01 -.276E+01 -.587E+01   0.991E-02 -.633E-02 0.347E-01   0.249E-03 -.537E-03 -.344E-03
   0.853E+01 0.978E+01 0.689E+01   -.879E+01 -.952E+01 -.686E+01   0.288E+00 -.263E+00 -.372E-01   -.318E-03 0.660E-03 -.271E-03
   0.160E+02 0.504E+01 0.552E+01   -.159E+02 -.474E+01 -.561E+01   -.123E+00 -.276E+00 0.847E-01   -.321E-03 -.313E-03 -.244E-03
   0.253E+02 0.684E+01 0.146E+02   -.301E+02 -.257E+01 -.150E+02   0.481E+01 -.426E+01 0.349E+00   0.572E-03 -.139E-02 -.105E-02
   0.166E+01 0.244E+02 0.289E+02   0.443E+01 -.193E+02 -.279E+02   -.609E+01 -.505E+01 -.922E+00   -.144E-02 -.108E-02 -.165E-02
   -.253E+02 0.674E+01 0.138E+02   0.301E+02 -.246E+01 -.142E+02   -.481E+01 -.427E+01 0.345E+00   -.559E-03 -.138E-02 -.126E-02
   -.183E+01 0.241E+02 0.267E+02   -.425E+01 -.191E+02 -.258E+02   0.608E+01 -.506E+01 -.972E+00   0.142E-02 -.101E-02 -.191E-02
   -.850E+01 0.971E+01 0.783E+01   0.876E+01 -.945E+01 -.779E+01   -.287E+00 -.264E+00 -.375E-01   0.332E-03 0.699E-03 -.214E-03
   -.159E+02 0.500E+01 0.698E+01   0.157E+02 -.470E+01 -.707E+01   0.131E+00 -.279E+00 0.934E-01   0.333E-03 -.317E-03 -.162E-03
   -.177E+01 0.420E+01 0.656E+01   0.182E+01 -.419E+01 -.654E+01   -.565E-01 0.721E-04 -.187E-01   -.760E-03 0.655E-04 -.757E-04
   -.358E+01 0.278E+01 0.755E+01   0.358E+01 -.277E+01 -.759E+01   -.639E-02 -.588E-02 0.447E-01   -.250E-03 -.558E-03 -.713E-06
   -.479E-02 -.104E+00 0.634E+01   0.384E-02 0.154E+00 -.635E+01   0.966E-03 -.177E-01 0.406E-02   0.216E-04 0.451E-04 -.435E-03
   -.193E-02 0.271E+00 0.665E+01   0.884E-03 -.292E+00 -.667E+01   0.128E-02 0.216E-01 0.130E-01   0.120E-04 -.972E-03 -.483E-03
   0.715E+01 0.123E+01 0.415E+01   -.716E+01 -.115E+01 -.411E+01   -.212E-01 -.556E-01 -.359E-01   0.146E-02 -.545E-04 0.431E-04
   0.745E+01 -.217E+01 0.393E+01   -.736E+01 0.218E+01 -.387E+01   -.769E-01 -.145E-01 -.483E-01   0.827E-03 0.212E-03 0.174E-03
   0.255E+02 0.817E+01 0.148E+02   -.250E+02 -.835E+01 -.154E+02   -.450E+00 0.202E+00 0.628E+00   0.125E-04 -.627E-03 -.852E-03
   0.273E+02 -.127E+02 0.142E+02   -.265E+02 0.132E+02 -.149E+02   -.783E+00 -.519E+00 0.685E+00   -.703E-03 0.149E-02 -.574E-03
   -.252E+02 0.807E+01 0.142E+02   0.247E+02 -.824E+01 -.148E+02   0.467E+00 0.193E+00 0.594E+00   -.393E-04 -.581E-03 -.110E-02
   -.271E+02 -.126E+02 0.137E+02   0.262E+02 0.131E+02 -.143E+02   0.800E+00 -.511E+00 0.649E+00   0.701E-03 0.146E-02 -.827E-03
   -.705E+01 0.122E+01 0.663E+01   0.705E+01 -.114E+01 -.660E+01   0.257E-01 -.559E-01 -.242E-01   -.145E-02 -.348E-04 0.454E-03
   -.734E+01 -.217E+01 0.640E+01   0.725E+01 0.218E+01 -.636E+01   0.803E-01 -.137E-01 -.374E-01   -.811E-03 0.165E-03 0.575E-03
   -.245E+01 -.325E+01 0.787E+01   0.245E+01 0.321E+01 -.791E+01   0.253E-01 -.115E-02 0.455E-01   -.151E-02 0.895E-03 -.219E-04
   -.685E+00 -.265E+01 0.676E+01   0.627E+00 0.262E+01 -.673E+01   0.415E-01 0.256E-01 -.235E-01   -.130E-02 -.791E-03 -.123E-03
   0.247E+01 -.324E+01 0.610E+01   -.248E+01 0.321E+01 -.613E+01   -.229E-01 -.153E-02 0.350E-01   0.153E-02 0.896E-03 -.331E-03
   0.709E+00 -.267E+01 0.542E+01   -.650E+00 0.264E+01 -.540E+01   -.402E-01 0.257E-01 -.269E-01   0.131E-02 -.786E-03 -.360E-03
   0.114E+02 -.821E+01 0.421E+01   -.112E+02 0.813E+01 -.429E+01   -.212E+00 0.815E-01 0.850E-01   0.920E-03 0.672E-03 0.286E-03
   0.505E+01 -.923E+01 0.658E+01   -.482E+01 0.923E+01 -.655E+01   -.220E+00 0.382E-02 -.244E-01   0.366E-03 -.499E-03 0.264E-03
   -.433E+01 -.379E+02 0.294E+02   0.104E+02 0.346E+02 -.286E+02   -.604E+01 0.338E+01 -.838E+00   -.170E-02 0.236E-02 -.150E-02
   0.142E+01 -.196E+02 0.135E+02   -.111E+01 0.186E+02 -.137E+02   -.321E+00 0.945E+00 0.216E+00   0.310E-03 0.365E-03 -.803E-03
   0.416E+01 -.377E+02 0.273E+02   -.102E+02 0.343E+02 -.264E+02   0.603E+01 0.339E+01 -.881E+00   0.168E-02 0.231E-02 -.176E-02
   -.148E+01 -.195E+02 0.126E+02   0.117E+01 0.185E+02 -.128E+02   0.316E+00 0.958E+00 0.213E+00   -.296E-03 0.294E-03 -.993E-03
   -.113E+02 -.817E+01 0.564E+01   0.110E+02 0.809E+01 -.573E+01   0.221E+00 0.841E-01 0.927E-01   -.959E-03 0.668E-03 0.374E-03
   -.501E+01 -.916E+01 0.751E+01   0.478E+01 0.916E+01 -.747E+01   0.221E+00 0.529E-02 -.267E-01   -.387E-03 -.544E-03 0.336E-03
   -.130E+01 -.217E+01 0.812E+01   0.118E+01 0.210E+01 -.815E+01   0.111E+00 0.554E-01 0.308E-01   -.843E-03 -.482E-03 0.145E-03
   -.189E+01 -.217E+01 0.814E+01   0.174E+01 0.204E+01 -.815E+01   0.132E+00 0.110E+00 0.100E-01   -.451E-03 -.733E-04 0.112E-04
   -.895E-02 -.187E+01 0.616E+01   0.836E-02 0.171E+01 -.619E+01   0.420E-03 0.109E+00 0.186E-01   0.806E-05 0.906E-03 -.340E-03
   0.141E-02 0.339E+01 0.627E+01   -.186E-02 -.362E+01 -.626E+01   0.678E-03 0.195E+00 -.158E-01   -.914E-06 -.545E-03 -.773E-04
   0.133E+01 -.218E+01 0.669E+01   -.121E+01 0.211E+01 -.671E+01   -.110E+00 0.555E-01 0.226E-01   0.852E-03 -.469E-03 -.678E-04
   0.190E+01 -.219E+01 0.720E+01   -.175E+01 0.205E+01 -.721E+01   -.132E+00 0.110E+00 0.861E-02   0.430E-03 -.610E-04 -.136E-03
   -.244E+01 -.710E+01 0.104E+02   0.292E+01 0.681E+01 -.106E+02   -.470E+00 0.290E+00 0.108E+00   -.576E-05 -.212E-03 -.275E-03
   0.940E+00 -.448E+01 0.862E+01   -.819E+00 0.427E+01 -.866E+01   -.112E+00 0.221E+00 0.316E-01   0.149E-03 0.163E-03 -.476E-04
   -.653E-01 -.100E+02 0.602E+01   0.691E-01 0.940E+01 -.567E+01   -.397E-02 0.636E+00 -.364E+00   -.300E-04 0.274E-03 -.790E-03
   -.910E-02 -.582E+01 0.697E+01   0.887E-02 0.540E+01 -.700E+01   -.289E-03 0.437E+00 0.259E-01   0.176E-04 -.607E-03 -.101E-03
   0.251E+01 -.707E+01 0.102E+02   -.299E+01 0.678E+01 -.103E+02   0.470E+00 0.291E+00 0.103E+00   0.503E-05 -.282E-03 -.400E-03
   -.940E+00 -.444E+01 0.830E+01   0.819E+00 0.423E+01 -.833E+01   0.112E+00 0.221E+00 0.279E-01   -.179E-03 0.165E-03 -.164E-03
   -.647E+00 -.160E+02 -.654E+03   0.762E+00 0.165E+02 0.635E+03   -.118E+00 -.460E+00 0.184E+02   0.625E-03 0.562E-03 -.116E-01
   0.743E-01 0.647E+00 -.188E+02   0.600E-14 -.512E-12 0.455E-12   -.784E-01 -.634E+00 0.188E+02   0.544E-03 0.404E-03 -.325E-01

 POSITION                                       TOTAL-FORCE (eV/Angst)
     -7.42004     12.74545      7.46473         0.000596      0.005625      0.002889
      0.00549      1.42269      7.46584        -0.023937     -0.022154      0.002729
      2.48619      0.03278      7.46334        -0.004062     -0.001952      0.005376
      2.48560      1.45842      7.47703        -0.003661     -0.018795      0.008288
      4.94150      0.03263      7.46618         0.003982     -0.001056      0.003329
      4.94216      1.45825      7.47891         0.004057     -0.018607      0.005994
     -0.00030     12.74520      7.46601        -0.002569      0.007447      0.002988
      7.42222      1.42243      7.46481         0.022953     -0.020269      0.002379
      2.47804     12.72160      7.47393         0.000122      0.015801      0.002288
      9.90274      1.39396      7.46271        -0.005290     -0.010396     -0.001215
      4.94976     12.72175      7.47567         0.000169      0.015346      0.000445
     12.37306      1.39407      7.46554         0.004539     -0.010385     -0.003851
     13.61021      2.11377      7.46688        -0.004709      0.005941     -0.003290
     -1.23721      3.52897      7.47764        -0.015151     -0.002851     -0.002109
      1.23736      2.14678      7.47662         0.012872     -0.004554      0.000190
      1.24977      3.56330      7.49876         0.014109     -0.005070     -0.009784
      3.71390      2.17882      7.49677         0.000200     -0.004772      0.003316
      3.71399      3.58830      7.53750        -0.000555     -0.014544     -0.013407
      6.19039      2.14657      7.47713        -0.013816     -0.001641     -0.002488
      6.17802      3.56321      7.49790        -0.014378     -0.003268     -0.012455
      8.66553      2.11361      7.46265         0.005900      0.006588     -0.000422
      8.66485      3.52878      7.47107         0.015372     -0.002162      0.002302
     11.13786      2.10411      7.46395         0.000129      0.008131     -0.004016
     11.13783      3.52539      7.46619         0.000268     -0.006716     -0.004224
     12.37105      4.23709      7.47455         0.003788      0.011007     -0.004249
     -2.48365      5.65711      7.48087         0.010235      0.000406     -0.003120
     -0.00330      4.24469      7.50021         0.028004     -0.004409     -0.002496
     -0.02927      5.65915      7.52663         0.006162      0.019139     -0.002943
      2.49046      4.30824      7.54512        -0.011674      0.007714     -0.004840
      2.45852      5.71108      7.63698         0.019154     -0.021278      0.012563
      4.93754      4.30852      7.54676         0.011288      0.009521     -0.007744
      4.96947      5.71145      7.64094        -0.019157     -0.019132      0.007644
      7.43099      4.24456      7.49482        -0.028607     -0.003560     -0.001646
      7.45677      5.65911      7.51949        -0.005627      0.019080     -0.001816
      9.90458      4.23703      7.46887        -0.003174      0.011106      0.000273
      9.91112      5.65706      7.47371        -0.008305      0.000668      0.002919
     -3.71031      6.37033      7.47383         0.000105      0.031189     -0.006900
     -3.71031      7.79347      7.47311         0.000309      0.001383     -0.007370
     -1.25942      6.37154      7.50469        -0.035295      0.022513      0.003509
     -1.26153      7.78967      7.50554         0.009419     -0.002426      0.006081
      1.19026      6.35780      7.57667         0.004377      0.015187     -0.002368
      1.18668      7.78731      7.57898         0.025521      0.004386      0.003376
      6.23765      6.35780      7.57585        -0.004235      0.015818     -0.007303
      6.24126      7.78728      7.57815        -0.025665      0.003215     -0.001274
      8.68688      6.37153      7.49403         0.036473      0.022433      0.010537
      8.68897      7.78962      7.49488        -0.008399     -0.001761      0.013094
     -4.93551      8.50776      7.47303         0.024034     -0.035436      0.002161
     -4.93960      9.92892      7.46833        -0.018859     -0.003671     -0.001593
     -2.48509      8.50772      7.48032        -0.023806     -0.035208     -0.003832
     -2.48093      9.92883      7.47410         0.019977     -0.002867     -0.005582
     -0.03437      8.49955      7.53007         0.009458      0.010445      0.004464
     -0.01429      9.91841      7.50156         0.011841      0.013176      0.006381
      2.43921      8.43918      7.63860         0.020419      0.016275      0.021637
      2.47587      9.85283      7.54875         0.000752      0.034599     -0.003391
      4.98878      8.43872      7.64254        -0.021113      0.013881      0.016943
      4.95208      9.85251      7.55071        -0.002916      0.032903     -0.006686
      7.46189      8.49956      7.52297        -0.008928      0.009995      0.005504
      7.44195      9.91852      7.49622        -0.012218      0.012026      0.007299
     -6.17518     10.63895      7.47043        -0.006206     -0.014699      0.005428
     -6.17583     12.05838      7.46242        -0.018275     -0.027454      0.001175
     -3.71026     10.64241      7.46594        -0.000113     -0.043330     -0.008593
     -3.71022     12.06712      7.46404         0.000281     -0.035172     -0.000089
     -1.24528     10.63877      7.47698         0.006242     -0.014709      0.002075
     -1.24455     12.05816      7.46670         0.018862     -0.025846     -0.001373
      1.23608     10.59683      7.50040         0.013945      0.000058     -0.005183
      1.23524     12.02032      7.47579         0.012176      0.011662     -0.000804
      3.71400     10.57656      7.53728        -0.000209      0.003789     -0.012455
      3.71394     11.99792      7.49168        -0.000435      0.014540      0.000194
      6.19168     10.59686      7.49977        -0.015189     -0.000875     -0.007440
      6.19253     12.02047      7.47617        -0.011739      0.008947     -0.003033
      3.71133      7.08671      8.34264         0.000179     -0.000913     -0.004386
    total drift:                               -0.003624      0.012595     -0.021802

  FREE ENERGIE OF THE ION-ELECTRON SYSTEM (eV)
  free  energy   TOTEN  =      -653.75336407 eV

  energy  without entropy=     -653.72460214  energy(sigma->0) =     -653.73898310

 d Force = 0.1493902E-05[-0.961E-05, 0.126E-04]  d Energy = 0.3748227E-04-0.360E-04
 d Force =-0.4218872E-01[-0.422E-01,-0.422E-01]  d Ewald  = 0.9374444E+00-0.980E+00

 reached required accuracy - stopping structural energy minimisation