 vasp.5.4.4.18Apr17-6-g9f103f2a35 (build Nov  8 2022 18:58:45) complex
 executed on             LinuxGNU date 2023.04.13  15:54:37

 INCAR:
 POTCAR:    PAW_PBE C 08Apr2002
 POTCAR:    PAW_PBE N 08Apr2002
 POTCAR:    PAW_PBE Ge_d 03Jul2007
 POTCAR:    PAW_PBE C 08Apr2002
 POTCAR:    PAW_PBE O 08Apr2002
 POTCAR:    PAW_PBE C 08Apr2002
   VRHFIN =C: s2p2

   TITEL  = PAW_PBE C 08Apr2002
   POMASS =   12.011; ZVAL   =    4.000    mass and valenz
   ENMAX  =  400.000; ENMIN  =  300.000 eV

[...]

   TITEL  = PAW_PBE Ge_d 03Jul2007
   POMASS =   72.610; ZVAL   =   14.000    mass and valenz
   ENMAX  =  310.294; ENMIN  =  232.720 eV

[...]

   TITEL  = PAW_PBE O 08Apr2002
   POMASS =   16.000; ZVAL   =    6.000    mass and valenz
   ENMAX  =  400.000; ENMIN  =  300.000 eV

  PAW_PBE C 08Apr2002                   :
  PAW_PBE N 08Apr2002                   :
  PAW_PBE Ge_d 03Jul2007                :
  PAW_PBE C 08Apr2002                   :
  PAW_PBE O 08Apr2002                   :

 POSCAR: POSCAR-c3n4
  positions in cartesian coordinates
 exchange correlation table for  LEXCH =        8
   RHO(1)=    0.500       N(1)  =     2000
   RHO(2)=  100.500       N(2)  =     4000

 ion  position               nearest neighbor table
   1  0.106  0.214  0.436-  26 1.21  46 1.21  25 1.27   6 2.03  16 2.03
   2  0.288  0.399  0.443-  29 1.19  35 1.25  25 1.29   5 2.06
   3  0.104  0.392  0.437-  44 1.19  39 1.24  25 1.29  17 2.05
   4  0.447  0.064  0.516-  30 1.19  27 1.20  48 1.27  13 2.04   8 2.04
   5  0.453  0.401  0.422-  28 1.20  29 1.21  56 1.28  15 2.04   2 2.06
   6  0.112  0.053  0.459-  26 1.19  31 1.20  32 1.26   9 2.02   1 2.03
   7  0.096  0.712  0.494-  54 1.20  34 1.22  33 1.26  12 2.02  22 2.05
   8  0.284  0.890  0.511-  27 1.20  37 1.22  33 1.27   4 2.04  11 2.05
   9  0.109  0.895  0.508-  31 1.19  52 1.21  33 1.29   6 2.02  23 2.03
  10  0.448  0.548  0.512-  38 1.19  56 1.22  35 1.22  19 2.02  57 2.46
  11  0.445  0.885  0.499-  37 1.20  36 1.20  48 1.25  21 2.05   8 2.05
  12  0.087  0.542  0.491-  34 1.19  40 1.21  39 1.22   7 2.02  57 2.46
  13  0.616  0.223  0.483-  42 1.21  30 1.22  41 1.26   4 2.04  18 2.04
  14  0.780  0.390  0.410-  45 1.21  51 1.23  41 1.26  17 2.02  22 2.02
  15  0.610  0.394  0.445-  28 1.21  55 1.21  41 1.31  24 2.03   5 2.04
  16  0.940  0.052  0.471-  46 1.19  43 1.20  32 1.26  20 2.02   1 2.03
  17  0.941  0.387  0.404-  45 1.19  44 1.21  40 1.28  14 2.02   3 2.05
  18  0.623  0.066  0.522-  42 1.20  47 1.21  48 1.27  13 2.04  21 2.04
  19  0.613  0.711  0.541-  50 1.19  38 1.23  49 1.27  10 2.02  24 2.05
  20  0.790  0.897  0.533-  43 1.19  53 1.21  49 1.30  16 2.02  23 2.03
  21  0.609  0.892  0.531-  47 1.20  36 1.21  49 1.29  18 2.04  11 2.05
  22  0.938  0.563  0.430-  51 1.18  54 1.21  40 1.28  14 2.02   7 2.05
  23  0.954  0.902  0.545-  52 1.21  53 1.21  32 1.26  20 2.03   9 2.03
  24  0.621  0.555  0.500-  55 1.19  50 1.20  56 1.27  15 2.03  19 2.05
  25  0.167  0.335  0.435-   1 1.27   3 1.29   2 1.29
  26  0.165  0.161  0.431-   6 1.19   1 1.21
  27  0.336  0.002  0.532-   8 1.20   4 1.20
  28  0.512  0.352  0.402-   5 1.20  15 1.21
  29  0.345  0.361  0.400-   2 1.19   5 1.21
  30  0.506  0.177  0.503-   4 1.19  13 1.22
  31  0.159  0.988  0.457-   9 1.19   6 1.20
  32  0.002  0.002  0.493-  16 1.26  23 1.26   6 1.26
  33  0.165  0.831  0.510-   7 1.26   8 1.27   9 1.29
  34  0.134  0.645  0.528-  12 1.19   7 1.22
  35  0.334  0.491  0.501-  10 1.22   2 1.25  57 1.86
  36  0.503  0.831  0.500-  11 1.20  21 1.21
  37  0.333  0.829  0.489-  11 1.20   8 1.22
  38  0.499  0.648  0.555-  10 1.19  19 1.23
  39  0.142  0.484  0.495-  12 1.22   3 1.24  57 1.87
  40  0.988  0.496  0.446-  12 1.21  22 1.28  17 1.28
  41  0.667  0.330  0.439-  13 1.26  14 1.26  15 1.31
  42  0.680  0.178  0.505-  18 1.20  13 1.21
  43  0.827  0.986  0.478-  20 1.19  16 1.20
  44  0.011  0.348  0.389-   3 1.19  17 1.21
  45  0.830  0.330  0.389-  17 1.19  14 1.21
  46  0.993  0.161  0.445-  16 1.19   1 1.21
  47  0.669  0.005  0.549-  21 1.20  18 1.21
  48  0.505  0.004  0.508-  11 1.25  18 1.27   4 1.27
  49  0.668  0.832  0.544-  19 1.27  21 1.29  20 1.30
  50  0.675  0.666  0.522-  19 1.19  24 1.20
  51  0.832  0.507  0.406-  22 1.18  14 1.23
  52  0.016  0.853  0.559-  23 1.21   9 1.21
  53  0.849  0.860  0.576-  20 1.21  23 1.21
  54  0.004  0.677  0.444-   7 1.20  22 1.21
  55  0.668  0.491  0.494-  24 1.19  15 1.21
  56  0.506  0.502  0.477-  10 1.22  24 1.27   5 1.28
  57  0.287  0.593  0.568-  35 1.86  39 1.87  10 2.46  12 2.46
  58  0.287  0.593  0.966-  59 1.04
  59  0.232  0.530  0.023-  58 1.04

IMPORTANT INFORMATION: All symmetrisations will be switched off!
NOSYMM: (Re-)initialisation of all symmetry stuff for point group C_1.

 KPOINTS: K-Points

Automatic generation of k-mesh.
Space group operators:
 irot       det(A)        alpha          n_x          n_y          n_z        tau_x        tau_y        tau_z
    1     1.000000     0.000000     1.000000     0.000000     0.000000     0.000000     0.000000     0.000000

 Subroutine IBZKPT returns following result:

 Found      5 irreducible k-points:

 Following reciprocal coordinates:
            Coordinates               Weight
  0.000000  0.000000  0.000000      1.000000
  0.333333  0.000000  0.000000      2.000000
  0.000000  0.333333  0.000000      2.000000
  0.333333  0.333333  0.000000      2.000000
 -0.333333  0.333333  0.000000      2.000000

 Following cartesian coordinates:
            Coordinates               Weight
  0.000000  0.000000  0.000000      1.000000
  0.024277  0.014368  0.000000      2.000000
  0.000396  0.028736  0.000000      2.000000
  0.024673  0.043104  0.000000      2.000000
 -0.023881  0.014368  0.000000      2.000000

 TETIRR: Found     24 inequivalent tetrahedra from       54

 SYSTEM =  unknown system
 POSCAR =  POSCAR-c3n4

 Startparameter for this run:
   NWRITE =      2    write-flag & timer
   PREC   = normal    normal or accurate (medium, high low for compatibility)
   ISTART =      0    job   : 0-new  1-cont  2-samecut
   ICHARG =      2    charge: 1-file 2-atom 10-const
   ISPIN  =      2    spin polarized calculation?
   LNONCOLLINEAR =      F non collinear calculations
   LSORBIT =      F    spin-orbit coupling
   INIWAV =      1    electr: 0-lowe 1-rand  2-diag
   LASPH  =      F    aspherical Exc in radial PAW
   METAGGA=      F    non-selfconsistent MetaGGA calc.

 Electronic Relaxation 1
   ENCUT  =  440.0 eV  32.34 Ry    5.69 a.u.  21.31 20.92 23.09*2*pi/ulx,y,z
   ENINI  =  440.0     initial cutoff
   ENAUG  =  644.9 eV  augmentation charge cutoff
   NELM   =    100;   NELMIN=  2; NELMDL= -5     # of ELM steps
   EDIFF  = 0.1E-03   stopping-criterion for ELM
   LREAL  =      F    real-space projection
   NLSPLINE    = F    spline interpolate recip. space projectors
   LCOMPAT=      F    compatible to vasp.4.4
   GGA_COMPAT  = T    GGA compatible to vasp.4.4-vasp.4.6
   LMAXPAW     = -100 max onsite density
   LMAXMIX     =    2 max onsite mixed and CHGCAR
   VOSKOWN=      0    Vosko Wilk Nusair interpolation
   ROPT   =    0.00000   0.00000   0.00000   0.00000
   ROPT   =    0.00000
 Ionic relaxation
   EDIFFG = -.1E-01   stopping-criterion for IOM
   NSW    =      0    number of steps for IOM
   NBLOCK =      1;   KBLOCK =      1    inner block; outer block
   IBRION =     -1    ionic relax: 0-MD 1-quasi-New 2-CG
   NFREE  =      0    steps in history (QN), initial steepest desc. (CG)
   ISIF   =      2    stress and relaxation
   IWAVPR =     10    prediction:  0-non 1-charg 2-wave 3-comb
   ISYM   =      0    0-nonsym 1-usesym 2-fastsym
   LCORR  =      T    Harris-Foulkes like correction to forces

   POTIM  = 0.5000    time-step for ionic-motion
   TEIN   =    0.0    initial temperature
   TEBEG  =    0.0;   TEEND  =   0.0 temperature during run
   SMASS  =  -3.00    Nose mass-parameter (am)
   estimated Nose-frequenzy (Omega)   =  0.10E-29 period in steps =****** mass=  -0.355E-26a.u.
   SCALEE = 1.0000    scale energy and forces
   NPACO  =    256;   APACO  = 16.0  distance and # of slots for P.C.
   PSTRESS=    0.0 pullay stress

  Mass of Ions in am
   POMASS =  12.01 14.00 72.61 12.01 16.00
  Ionic Valenz
   ZVAL   =   4.00  5.00 14.00  4.00  6.00
  Atomic Wigner-Seitz radii
  virtual crystal weights
   VCA    =   1.00  1.00  1.00  1.00  1.00
   NELECT =     280.0000    total number of electrons
   NUPDOWN=      -1.0000    fix difference up-down

 DOS related values:
   EMIN   = -14.00;   EMAX   =  6.00  energy-range for DOS
   EFERMI =   0.00
   ISMEAR =    -5;   SIGMA  =   0.20  broadening in eV -4-tet -1-fermi 0-gaus

 Electronic relaxation 2 (details)
   IALGO  =     38    algorithm
   LDIAG  =      T    sub-space diagonalisation (order eigenvalues)
   LSUBROT=      F    optimize rotation matrix (better conditioning)
   TURBO    =      0    0=normal 1=particle mesh
   IRESTART =      0    0=no restart 2=restart with 2 vectors
   NREBOOT  =      0    no. of reboots
   NMIN     =      0    reboot dimension
   EREF     =   0.00    reference energy to select bands
   IMIX   =      4    mixing-type and parameters
     AMIX     =   0.25;   BMIX     =  0.00
     AMIX_MAG =   1.00;   BMIX_MAG =  0.00
     AMIN     =   0.10
     WC   =   100.;   INIMIX=   1;  MIXPRE=   1;  MAXMIX= -45

 Intra band minimization:
   WEIMIN = 0.0000     energy-eigenvalue tresh-hold
   EBREAK =  0.15E-06  absolut break condition
   DEPER  =   0.30     relativ break condition

   TIME   =   0.40     timestep for ELM

  volume/ion in A,a.u.               =      29.76       200.84
  Fermi-wavevector in a.u.,A,eV,Ry     =   0.887748  1.677600 10.722701  0.788096
  Thomas-Fermi vector in A             =   2.009087

 Write flags
   LWAVE        =      F    write WAVECAR
   LDOWNSAMPLE  =      F    k-point downsampling of WAVECAR
   LCHARG       =      F    write CHGCAR
   LVTOT        =      F    write LOCPOT, total local potential
   LVHAR        =      F    write LOCPOT, Hartree potential only
   LELF         =      F    write electronic localiz. function (ELF)
   LORBIT       =     11    0 simple, 1 ext, 2 COOP (PROOUT), +10 PAW based schemes

 Dipole corrections
   LMONO  =      F    monopole corrections only (constant potential shift)
   LDIPOL =      F    correct potential (dipole corrections)
   IDIPOL =      0    1-x, 2-y, 3-z, 4-all directions
   EPSILON=  1.0000000 bulk dielectric constant

 Exchange correlation treatment:
   GGA     =    --    GGA type
   VOSKOWN=      0    Vosko Wilk Nusair interpolation
   LHFCALC =     F    Hartree Fock is set to
   LHFONE  =     F    Hartree Fock one center treatment
   AEXX    =    0.0000 exact exchange contribution

 Linear response parameters
   LEPSILON=     F    determine dielectric tensor
   LRPA    =     F    only Hartree local field effects (RPA)
   LNABLA  =     F    use nabla operator in PAW spheres
   LVEL    =     F    velocity operator in full k-point grid
   LINTERFAST=   F  fast interpolation
   KINTER  =     0    interpolate to denser k-point grid
   CSHIFT  =0.1000    complex shift for real part using Kramers Kronig
   OMEGAMAX=  -1.0    maximum frequency
[...]
  Total     475.73728   431.63181   101.39612    -5.67565    15.71718     9.55385
  in kB     434.07440   393.83148    92.51632    -5.17860    14.34074     8.71717

 VOLUME and BASIS-vectors are now :
  energy-cutoff  :      440.00
  volume of cell :     1755.96
      direct lattice vectors                 reciprocal lattice vectors
    12.459081811 -0.171666427  0.000000000     0.080922633  0.047893460 -0.000000000
    -6.229540906 10.525671895  0.000000000     0.001319792  0.095786921 -0.000000000
     0.000000000  0.000000000 13.500000000    -0.000000000 -0.000000000  0.074074074

  length of vectors
    12.460264401 12.230983146 13.500000000     0.094033271  0.095796013  0.074074074

 FORCES acting on ions
    electron-ion (+dipol)            ewald-force                    non-local-force                 convergence-correction
   -.682E+01 0.164E+02 0.132E+03   0.702E+01 -.167E+02 -.132E+03   -.249E+00 0.374E+01 -.164E+01   0.240E-01 0.173E-01 0.536E-02
   -.452E+01 0.365E+02 0.143E+03   0.391E+01 -.369E+02 -.144E+03   -.333E+01 0.796E+00 0.263E+00   0.257E-01 0.692E-02 0.485E-02
   -.122E+02 0.396E+02 0.141E+03   0.130E+02 -.399E+02 -.141E+03   0.300E+01 0.727E+00 0.629E+00   0.438E-01 -.401E-03 0.286E-02
   0.801E+02 -.672E+02 -.997E+02   -.835E+02 0.686E+02 0.101E+03   0.344E+01 -.184E+01 -.339E+00   -.332E-02 -.116E-01 0.247E-02
   -.202E+02 0.640E+02 0.227E+03   0.204E+02 -.668E+02 -.230E+03   -.390E+00 0.374E+01 0.219E+01   -.170E-01 0.221E-01 0.188E-01
   -.747E+02 -.198E+02 0.109E+03   0.781E+02 0.212E+02 -.111E+03   -.341E+01 -.173E+01 0.136E+01   0.119E-02 0.119E-01 0.137E-02
   0.505E+02 -.323E+02 -.387E+02   -.505E+02 0.325E+02 0.396E+02   0.686E+00 0.252E+01 0.868E+00   0.554E-02 0.136E-01 0.240E-02
   0.294E+02 -.226E+02 -.561E+02   -.292E+02 0.222E+02 0.560E+02   -.289E+01 -.197E+01 0.494E+00   0.335E-02 -.732E-02 0.698E-02
   -.606E+01 -.345E+01 -.687E+02   0.563E+01 0.272E+01 0.690E+02   0.327E+01 -.163E+01 0.330E+00   0.408E-02 0.583E-03 0.148E-02
   -.325E+02 0.205E+02 -.824E+02   0.305E+02 -.191E+02 0.841E+02   0.117E+01 -.196E+01 -.130E+01   0.879E-02 -.141E-01 -.109E-01
   -.421E+01 0.214E+02 0.546E+02   0.423E+01 -.256E+02 -.548E+02   0.891E-01 0.371E+01 -.648E+00   0.702E-02 -.201E-01 0.117E-01
   0.412E+02 0.185E+02 -.756E+02   -.392E+02 -.170E+02 0.777E+02   -.130E+01 -.241E+01 -.875E+00   0.228E-01 0.183E-01 0.977E-02
   -.398E+01 -.178E+02 -.185E+02   0.435E+01 0.169E+02 0.178E+02   -.171E+00 0.362E+01 -.720E+00   -.216E-01 0.480E-03 0.945E-03
   0.452E+02 0.335E+02 0.220E+03   -.451E+02 -.335E+02 -.220E+03   -.312E+01 -.136E+01 -.968E+00   -.251E-01 0.705E-02 0.630E-02
   -.144E+02 0.252E+02 0.986E+02   0.143E+02 -.261E+02 -.986E+02   0.330E+01 -.132E+01 -.507E+00   -.439E-01 0.174E-01 0.441E-02
   0.772E+02 -.182E+02 0.751E+02   -.807E+02 0.195E+02 -.761E+02   0.344E+01 -.182E+01 0.714E+00   0.361E-02 -.679E-02 0.500E-02
   0.793E+01 0.907E+02 0.242E+03   -.708E+01 -.936E+02 -.245E+03   -.109E+00 0.357E+01 0.204E+01   0.139E-01 0.529E-02 0.105E-02
   -.761E+02 -.704E+02 -.113E+03   0.798E+02 0.720E+02 0.114E+03   -.339E+01 -.177E+01 -.547E+00   -.310E-02 -.243E-01 0.528E-02
   -.433E+02 -.306E+02 -.161E+03   0.424E+02 0.314E+02 0.162E+03   -.372E+00 0.253E+01 0.922E+00   -.379E-02 -.156E-01 -.671E-02
   0.986E+01 -.461E+01 -.125E+03   -.976E+01 0.390E+01 0.126E+03   -.335E+01 -.154E+01 0.575E+00   -.817E-02 -.145E-01 0.105E-02
   -.326E+02 -.171E+02 -.101E+03   0.327E+02 0.167E+02 0.101E+03   0.286E+01 -.209E+01 0.105E+01   0.187E-02 -.245E-01 0.457E-02
   0.892E+02 -.817E+02 0.157E+03   -.915E+02 0.852E+02 -.157E+03   0.342E+01 -.249E+01 0.305E+00   -.341E-03 0.218E-01 0.686E-02
   -.123E+02 0.513E+02 -.217E+03   0.124E+02 -.552E+02 0.219E+03   -.670E-01 0.397E+01 -.173E+01   -.885E-02 -.141E-02 0.226E-03
   -.102E+03 -.298E+02 -.699E+02   0.105E+03 0.313E+02 0.716E+02   -.377E+01 -.125E+01 -.136E+01   -.359E-01 -.141E-01 -.694E-02
   -.173E+02 0.483E+02 0.189E+03   0.179E+02 -.492E+02 -.193E+03   -.345E+00 0.138E+01 0.302E+01   0.631E-01 0.211E-01 0.115E-01
   -.232E+03 -.350E+02 0.257E+03   0.271E+03 0.562E+02 -.274E+03   -.316E+02 -.165E+02 0.128E+02   0.629E-02 0.284E-01 0.481E-02
   0.187E+03 -.183E+03 -.275E+03   -.226E+03 0.204E+03 0.291E+03   0.309E+02 -.166E+02 -.107E+02   0.947E-03 -.124E-01 0.262E-02
   0.289E+01 0.205E+03 0.456E+03   0.367E+00 -.241E+03 -.486E+03   -.202E+01 0.291E+02 0.223E+02   -.346E-01 0.450E-01 0.312E-01
   -.468E+02 0.170E+03 0.478E+03   0.446E+02 -.203E+03 -.512E+03   0.192E+01 0.276E+02 0.253E+02   0.108E-01 0.404E-01 0.385E-01
   0.230E+03 -.118E+03 -.131E+03   -.267E+03 0.143E+03 0.132E+03   0.300E+02 -.194E+02 -.333E-01   -.202E-01 0.616E-02 -.736E-03
   -.173E+03 -.951E+02 0.294E+03   0.211E+03 0.107E+03 -.320E+03   -.304E+02 -.100E+02 0.196E+02   0.450E-03 0.240E-02 0.497E-02
   -.528E+01 -.585E+00 -.286E+02   0.564E+01 0.330E+00 0.300E+02   -.198E+00 0.122E+00 -.105E+01   -.268E-02 -.609E-03 0.328E-02
   0.215E+02 -.287E+02 -.112E+03   -.215E+02 0.297E+02 0.118E+03   0.245E+00 -.766E+00 -.401E+01   0.873E-02 -.130E-02 0.566E-02
   0.389E+00 -.734E+02 -.351E+03   0.268E+02 0.911E+02 0.382E+03   -.224E+02 -.139E+02 -.236E+02   0.281E-01 0.182E-01 0.826E-02
   0.768E+01 0.799E+02 -.888E+02   -.329E+02 -.755E+02 0.102E+03   0.191E+02 -.415E+01 -.105E+02   0.159E-01 0.605E-02 -.602E-03
   -.209E+02 0.132E+03 0.144E+03   0.246E+02 -.175E+03 -.158E+03   -.244E+01 0.340E+02 0.978E+01   0.235E-02 -.334E-01 0.153E-01
   0.511E+00 0.128E+03 0.160E+03   -.316E+01 -.171E+03 -.174E+03   0.163E+01 0.339E+02 0.986E+01   0.154E-01 -.191E-01 0.181E-01
   0.451E+02 -.716E+02 -.382E+03   -.780E+02 0.899E+02 0.407E+03   0.269E+02 -.144E+02 -.179E+02   -.123E-01 -.254E-01 -.142E-01
   -.102E+01 0.911E+02 -.126E+03   0.240E+02 -.875E+02 0.145E+03   -.175E+02 -.356E+01 -.142E+02   0.548E-01 0.264E-01 0.218E-01
   0.621E+02 0.217E+02 0.827E+02   -.680E+02 -.258E+02 -.828E+02   0.393E+01 0.280E+01 -.352E+00   0.141E-01 0.271E-01 0.105E-01
   0.175E+02 0.464E+02 0.172E+03   -.201E+02 -.484E+02 -.177E+03   0.199E+01 0.161E+01 0.400E+01   -.668E-01 0.193E-01 0.584E-02
   -.226E+03 -.124E+03 -.143E+03   0.264E+03 0.148E+03 0.145E+03   -.302E+02 -.185E+02 -.965E+00   -.690E-02 -.184E-01 0.107E-01
   0.177E+03 -.804E+02 0.228E+03   -.217E+03 0.922E+02 -.251E+03   0.315E+02 -.971E+01 0.166E+02   -.268E-03 -.238E-01 0.112E-01
   0.156E+02 0.196E+03 0.493E+03   -.103E+02 -.232E+03 -.524E+03   -.439E+01 0.286E+02 0.230E+02   0.437E-01 -.477E-02 -.412E-02
   0.734E+01 0.282E+03 0.413E+03   -.962E+01 -.325E+03 -.428E+03   0.919E+00 0.340E+02 0.108E+02   -.346E-02 -.116E-01 -.696E-02
   0.233E+03 -.363E+02 0.155E+03   -.273E+03 0.591E+02 -.163E+03   0.320E+02 -.176E+02 0.634E+01   0.245E-01 -.179E-02 0.625E-02
   -.170E+03 -.188E+03 -.338E+03   0.207E+03 0.209E+03 0.357E+03   -.295E+02 -.163E+02 -.137E+02   0.115E-02 -.346E-01 0.424E-02
   0.899E+00 -.413E+02 -.145E+02   -.779E+00 0.430E+02 0.114E+02   -.155E+00 -.111E+01 0.212E+01   -.181E-02 -.249E-01 0.873E-02
   -.210E+02 -.317E+02 -.218E+03   0.204E+02 0.343E+02 0.225E+03   0.171E+00 -.206E+01 -.539E+01   -.646E-02 -.236E-01 -.120E-02
   -.269E+03 -.785E+02 -.107E+03   0.308E+03 0.102E+03 0.108E+03   -.309E+02 -.183E+02 -.124E+01   -.334E-01 -.229E-01 -.440E-02
   0.213E+03 -.175E+03 0.350E+03   -.253E+03 0.195E+03 -.361E+03   0.309E+02 -.166E+02 0.657E+01   -.305E-01 0.208E-01 0.621E-02
   0.136E+01 0.176E+03 -.446E+03   0.437E+01 -.212E+03 0.476E+03   -.422E+01 0.287E+02 -.228E+02   -.979E-03 0.321E-02 -.798E-03
   -.421E+02 0.136E+03 -.501E+03   0.404E+02 -.169E+03 0.535E+03   0.119E+01 0.272E+02 -.262E+02   -.181E-01 -.610E-02 -.586E-02
   0.227E+03 -.153E+03 0.272E+03   -.258E+03 0.182E+03 -.288E+03   0.245E+02 -.225E+02 0.121E+02   0.680E-02 0.223E-01 0.997E-02
   -.200E+03 -.869E+02 -.217E+03   0.241E+03 0.979E+02 0.235E+03   -.321E+02 -.970E+01 -.141E+02   -.617E-01 -.356E-02 -.120E-01
   -.582E+02 0.250E+02 0.497E+02   0.624E+02 -.284E+02 -.532E+02   -.267E+01 0.215E+01 0.210E+01   -.144E-01 -.119E-01 -.579E-02
   0.526E+02 -.136E+03 -.113E+04   -.545E+02 0.158E+03 0.116E+04   0.143E+01 -.192E+02 -.253E+02   0.123E+00 0.156E-01 -.592E-01
   -.749E+02 -.171E+03 0.161E+03   0.872E+02 0.199E+03 -.193E+03   -.776E+01 -.175E+02 0.204E+02   0.264E-02 -.642E-03 -.514E-02
   0.621E+02 0.140E+03 -.847E+02   -.851E+02 -.192E+03 0.145E+03   0.185E+02 0.419E+02 -.487E+02   0.697E-02 0.434E-02 -.108E-01
   -.774E+01 -.283E+02 0.329E+02   0.242E-12 -.199E-12 0.796E-12   0.763E+01 0.283E+02 -.330E+02   0.110E+00 0.140E-01 0.187E+00

 POSITION                                       TOTAL-FORCE (eV/Angst)
     -0.01346      2.22929      5.89119        -0.023142      3.493465     -1.190086
      1.09855      4.14684      5.98156        -3.914251      0.379708     -0.004254
     -1.14740      4.10586      5.90230         3.813132      0.400163      0.409209
      5.17561      0.59516      6.96079        -0.064991     -0.428605      0.718826
      3.13925      4.14572      5.70302        -0.283512      0.938162     -0.568949
      1.06731      0.53588      6.19112        -0.019899     -0.346195     -0.287072
     -3.23407      7.47679      6.66659         0.730503      2.755271      1.701228
     -2.00208      9.31971      6.90014        -2.642882     -2.435533      0.407089
     -4.21457      9.40563      6.85862         2.846391     -2.354484      0.683024
      2.16526      5.69403      6.90963        -0.858753     -0.578014      0.385149
      0.03547      9.24088      6.73502         0.113907     -0.528365     -0.802431
     -2.29426      5.69109      6.62299         0.732001     -0.921555      1.193098
      6.28791      2.24068      6.51544         0.178030      2.738628     -1.433936
      7.29350      3.96773      5.53234        -3.072493     -1.331826     -0.713927
      5.14829      4.04574      6.01266         3.174554     -2.200063     -0.515251
     11.37972      0.38919      6.35338        -0.105394     -0.533528     -0.318141
      9.31259      3.90699      5.45131         0.752993      0.662284     -0.856985
      7.35078      0.58337      7.04635         0.296629     -0.190088      0.642885
      3.20992      7.38042      7.30578        -1.262970      3.315231      1.663681
      4.25119      9.30881      7.19281        -3.256356     -2.268009      1.673744
      2.03334      9.28936      7.17184         3.015120     -2.548146      1.159143
      8.18441      5.76313      5.81080         1.150277      1.038625     -0.239439
      6.27316      9.32736      7.35190         0.003824      0.043765      0.992233
      4.28565      5.73146      6.74704        -0.804645      0.291844      0.342187
     -0.01292      3.50225      5.87181         0.299346      0.565735     -0.667874
      1.04973      1.66604      5.81678         7.861810      4.634758     -3.787856
      4.17831     -0.03871      7.18305        -7.707294      4.408688      4.797528
      4.18031      3.62212      5.43114         1.216471     -7.371467     -7.291727
      2.04758      3.73791      5.39559        -0.330860     -6.065792     -7.968505
      5.19905      1.77345      6.79147        -7.759853      6.438598      1.170338
     -4.17849     10.37442      6.16379         7.749911      2.311389     -6.514262
      0.01514      0.01925      6.65229         0.157655     -0.125036      0.426519
     -3.12460      8.71679      6.88743         0.235549      0.200308      1.400223
     -2.35012      6.76887      7.12406         4.854521      3.744364      7.838875
      1.09805      5.11253      6.76986        -6.059164      0.310157      2.795001
      1.09008      8.65820      6.74519         1.222957     -8.837200     -3.781133
     -1.01655      8.67205      6.60547        -1.014135     -8.807279     -3.799796
      2.18041      6.73531      7.48918        -6.026168      3.897600      6.822721
     -1.24698      5.06637      6.68299         5.492519      0.066073      4.379567
      9.22492      5.05059      6.01976        -1.917289     -1.249494     -0.369545
      6.25804      3.36053      5.92971        -0.625717     -0.375752     -1.611485
      7.35947      1.75711      6.81963         7.957987      6.192331      0.762359
      4.16245     10.23868      6.44989        -8.087248      2.068199     -6.037843
     -2.03180      3.66210      5.24776         0.883296     -6.403888     -7.964891
      8.29024      3.33265      5.25756        -1.370411     -9.546219     -4.343766
     11.36832      1.52437      6.00819        -8.150149      5.169768     -1.967477
      8.30081     -0.05962      7.41692         7.041830      4.491948      5.590478
      6.26576     -0.04579      6.86110        -0.042818      0.543353     -0.921991
      3.14175      8.64554      7.34561        -0.359846      0.533871      1.916316
      4.26857      6.88905      7.05220         8.562781      4.751276      0.204372
      7.21106      5.19019      5.47650        -9.074356      3.246841     -4.420159
     -5.11637      8.97562      7.54107         1.521935     -7.166218      7.119839
      5.22610      8.90171      7.77560        -0.499702     -5.782905      8.423527
     -4.16619      7.12793      6.00041        -6.829876      5.935650     -4.505730
      5.25639      5.05644      6.66551         9.104825      1.310113      4.815459
      3.17404      5.19494      6.44060         1.472300     -1.200131     -1.378835
     -0.12055      6.19125      7.66415        -0.279127      2.715476      3.837426
     -0.12055      6.19125     13.04615         4.557654     10.298407    -11.992052
     -0.40946      5.53799      0.30696        -4.557407    -10.296254     11.983352
    total drift:                                0.000428      0.002336      0.020970

  FREE ENERGIE OF THE ION-ELECTRON SYSTEM (eV)
  free  energy   TOTEN  =      -446.38568236 eV

  energy  without entropy=     -446.38568236  energy(sigma->0) =     -446.38568236

 total charge

[...]

 magnetization (x)

# of ion       s       p       d       tot
    1        0.000   0.000   0.000   0.000
    2        0.000   0.000   0.000   0.000
    3       -0.000  -0.000   0.000  -0.000
    4       -0.000  -0.000   0.000  -0.000
    5        0.000   0.000   0.000   0.000
    6       -0.000  -0.000   0.000  -0.000
    7        0.000  -0.000   0.000  -0.000
    8       -0.000  -0.000   0.000  -0.000
    9        0.000  -0.000   0.000  -0.000
   10        0.000  -0.000   0.000  -0.000
   11       -0.000  -0.000   0.000  -0.000
   12        0.000   0.000   0.000   0.000
   13        0.000  -0.000   0.000  -0.000
   14       -0.000  -0.000   0.000  -0.000
   15        0.000   0.000   0.000   0.000
   16        0.000   0.000   0.000   0.000
   17       -0.000  -0.000   0.000  -0.000
   18       -0.000  -0.000   0.000  -0.000
   19        0.000   0.000   0.000   0.000
   20       -0.000  -0.000   0.000  -0.000
   21        0.000   0.000   0.000   0.000
   22       -0.000  -0.000   0.000  -0.000
   23        0.000  -0.000   0.000  -0.000
   24        0.000   0.000   0.000   0.000
   25        0.000  -0.000   0.000  -0.000
   26        0.000  -0.000   0.000   0.000
   27       -0.000   0.000   0.000   0.000
   28        0.000  -0.000   0.000  -0.000
   29        0.000  -0.000   0.000  -0.000
   30        0.000  -0.000   0.000  -0.000
   31        0.000   0.000   0.000   0.000
   32       -0.000   0.000   0.000   0.000
   33       -0.000  -0.000   0.000  -0.000
   34       -0.000   0.000   0.000   0.000
   35        0.000   0.000   0.000   0.000
   36        0.000   0.000   0.000   0.000
   37       -0.000   0.000   0.000   0.000
   38        0.000   0.000   0.000   0.000
   39        0.000   0.000   0.000   0.000
   40        0.000  -0.000   0.000  -0.000
   41       -0.000  -0.000   0.000  -0.000
   42        0.000   0.000   0.000   0.000
   43        0.000  -0.000   0.000   0.000
   44        0.000  -0.000   0.000  -0.000
   45       -0.000  -0.000   0.000  -0.000
   46        0.000   0.000   0.000   0.000
   47       -0.000   0.000   0.000   0.000
   48       -0.000  -0.000   0.000  -0.000
   49        0.000  -0.000   0.000  -0.000
   50        0.000  -0.000   0.000  -0.000
   51       -0.000  -0.000   0.000  -0.000
   52        0.000   0.000   0.000   0.000
   53        0.000   0.000   0.000   0.000
   54        0.000  -0.000   0.000  -0.000
   55        0.000  -0.000   0.000   0.000
   56        0.000   0.000   0.000   0.000
   57       -0.000  -0.000   0.000  -0.000
   58        0.000   0.000   0.000   0.000
   59        0.000  -0.000   0.000  -0.000
tot          0.000  -0.000   0.000   0.000

 BZINTS: Fermi energy: -0.650413;280.000000 electrons
         Band energy:***********;  BLOECHL correction:  0.000000