 vasp.5.4.4.18Apr17-6-g9f103f2a35 (build Nov  8 2022 18:58:45) complex
 executed on             LinuxGNU date 2023.04.13  15:54:02

 INCAR:
 POTCAR:    PAW_PBE C 08Apr2002
 POTCAR:    PAW_PBE N 08Apr2002
 POTCAR:    PAW_PBE Ge_d 03Jul2007
 POTCAR:    PAW_PBE C 08Apr2002
 POTCAR:    PAW_PBE O 08Apr2002
 POTCAR:    PAW_PBE C 08Apr2002
   VRHFIN =C: s2p2

   TITEL  = PAW_PBE C 08Apr2002
   POMASS =   12.011; ZVAL   =    4.000    mass and valenz
   ENMAX  =  400.000; ENMIN  =  300.000 eV

[...]

   TITEL  = PAW_PBE Ge_d 03Jul2007
   POMASS =   72.610; ZVAL   =   14.000    mass and valenz
   ENMAX  =  310.294; ENMIN  =  232.720 eV

[...]

   TITEL  = PAW_PBE O 08Apr2002
   POMASS =   16.000; ZVAL   =    6.000    mass and valenz
   ENMAX  =  400.000; ENMIN  =  300.000 eV

  PAW_PBE C 08Apr2002                   :
  PAW_PBE N 08Apr2002                   :
  PAW_PBE Ge_d 03Jul2007                :
  PAW_PBE C 08Apr2002                   :
  PAW_PBE O 08Apr2002                   :

 POSCAR: POSCAR-c3n4
  positions in cartesian coordinates
 exchange correlation table for  LEXCH =        8
   RHO(1)=    0.500       N(1)  =     2000
   RHO(2)=  100.500       N(2)  =     4000

 ion  position               nearest neighbor table
   1  0.106  0.214  0.436-  26 1.23  46 1.23  25 1.30
   2  0.288  0.399  0.443-  29 1.21  35 1.27  25 1.32
   3  0.104  0.392  0.437-  44 1.21  39 1.27  25 1.31
   4  0.447  0.064  0.516-  30 1.22  27 1.23  48 1.30
   5  0.453  0.401  0.422-  28 1.22  29 1.23  56 1.31
   6  0.112  0.053  0.459-  26 1.22  31 1.23  32 1.29   9 2.07
   7  0.096  0.712  0.494-  54 1.22  34 1.25  33 1.29  12 2.06
   8  0.284  0.890  0.511-  27 1.23  37 1.24  33 1.30
   9  0.109  0.895  0.508-  31 1.22  52 1.24  33 1.32   6 2.07
  10  0.448  0.548  0.512-  38 1.22  56 1.25  35 1.25  19 2.07
  11  0.445  0.885  0.499-  37 1.23  36 1.23  48 1.27
  12  0.087  0.542  0.491-  34 1.22  40 1.24  39 1.25   7 2.06
  13  0.616  0.223  0.483-  42 1.24  30 1.24  41 1.29
  14  0.780  0.390  0.410-  45 1.24  51 1.25  41 1.29  17 2.07  22 2.07
  15  0.610  0.394  0.445-  28 1.23  55 1.23  41 1.34
  16  0.940  0.052  0.471-  46 1.21  43 1.23  32 1.29  20 2.07
  17  0.941  0.387  0.404-  45 1.21  44 1.23  40 1.31  14 2.07
  18  0.623  0.066  0.522-  42 1.22  47 1.23  48 1.30
  19  0.613  0.711  0.541-  50 1.22  38 1.26  49 1.30  10 2.07
  20  0.790  0.897  0.533-  43 1.22  53 1.23  49 1.33  16 2.07
  21  0.609  0.892  0.531-  47 1.23  36 1.24  49 1.32
  22  0.938  0.563  0.430-  51 1.20  54 1.24  40 1.31  14 2.07
  23  0.954  0.902  0.545-  52 1.23  53 1.23  32 1.29
  24  0.621  0.555  0.500-  55 1.21  50 1.22  56 1.30
  25  0.167  0.335  0.435-   1 1.30   3 1.31   2 1.32
  26  0.165  0.161  0.431-   6 1.22   1 1.23
  27  0.336  0.002  0.532-   8 1.23   4 1.23
  28  0.512  0.352  0.402-   5 1.22  15 1.23
  29  0.345  0.361  0.400-   2 1.21   5 1.23
  30  0.506  0.177  0.503-   4 1.22  13 1.24
  31  0.159  0.988  0.457-   9 1.22   6 1.23
  32  0.002  0.002  0.493-  16 1.29  23 1.29   6 1.29
  33  0.165  0.831  0.510-   7 1.29   8 1.30   9 1.32
  34  0.134  0.645  0.528-  12 1.22   7 1.25
  35  0.334  0.491  0.501-  10 1.25   2 1.27  57 1.90
  36  0.503  0.831  0.500-  11 1.23  21 1.24
  37  0.333  0.829  0.489-  11 1.23   8 1.24
  38  0.499  0.648  0.555-  10 1.22  19 1.26
  39  0.142  0.484  0.495-  12 1.25   3 1.27  57 1.91
  40  0.988  0.496  0.446-  12 1.24  22 1.31  17 1.31
  41  0.667  0.330  0.439-  13 1.29  14 1.29  15 1.34
  42  0.680  0.178  0.505-  18 1.22  13 1.24
  43  0.827  0.986  0.478-  20 1.22  16 1.23
  44  0.011  0.348  0.389-   3 1.21  17 1.23
  45  0.830  0.330  0.389-  17 1.21  14 1.24
  46  0.993  0.161  0.445-  16 1.21   1 1.23
  47  0.669  0.005  0.549-  21 1.23  18 1.23
  48  0.505  0.004  0.508-  11 1.27  18 1.30   4 1.30
  49  0.668  0.832  0.544-  19 1.30  21 1.32  20 1.33
  50  0.675  0.666  0.522-  19 1.22  24 1.22
  51  0.832  0.507  0.406-  22 1.20  14 1.25
  52  0.016  0.853  0.559-  23 1.23   9 1.24
  53  0.849  0.860  0.576-  20 1.23  23 1.23
  54  0.004  0.677  0.444-   7 1.22  22 1.24
  55  0.668  0.491  0.494-  24 1.21  15 1.23
  56  0.506  0.502  0.477-  10 1.25  24 1.30   5 1.31
  57  0.287  0.593  0.568-  35 1.90  39 1.91
  58  0.287  0.593  0.966-  59 1.07
  59  0.232  0.530  0.023-  58 1.07

IMPORTANT INFORMATION: All symmetrisations will be switched off!
NOSYMM: (Re-)initialisation of all symmetry stuff for point group C_1.

 KPOINTS: K-Points

Automatic generation of k-mesh.
Space group operators:
 irot       det(A)        alpha          n_x          n_y          n_z        tau_x        tau_y        tau_z
    1     1.000000     0.000001     1.000000     0.000000     0.000000     0.000000     0.000000     0.000000

 Subroutine IBZKPT returns following result:

 Found      5 irreducible k-points:

 Following reciprocal coordinates:
            Coordinates               Weight
  0.000000  0.000000  0.000000      1.000000
  0.333333  0.000000  0.000000      2.000000
  0.000000  0.333333  0.000000      2.000000
  0.333333  0.333333  0.000000      2.000000
 -0.333333  0.333333  0.000000      2.000000

 Following cartesian coordinates:
            Coordinates               Weight
  0.000000  0.000000  0.000000      1.000000
  0.024277  0.014368  0.000000      2.000000
  0.000396  0.028736  0.000000      2.000000
  0.024673  0.043104  0.000000      2.000000
 -0.023881  0.014368  0.000000      2.000000

 TETIRR: Found     24 inequivalent tetrahedra from       54

 SYSTEM =  unknown system
 POSCAR =  POSCAR-c3n4

 Startparameter for this run:
   NWRITE =      2    write-flag & timer
   PREC   = normal    normal or accurate (medium, high low for compatibility)
   ISTART =      0    job   : 0-new  1-cont  2-samecut
   ICHARG =      2    charge: 1-file 2-atom 10-const
   ISPIN  =      2    spin polarized calculation?
   LNONCOLLINEAR =      F non collinear calculations
   LSORBIT =      F    spin-orbit coupling
   INIWAV =      1    electr: 0-lowe 1-rand  2-diag
   LASPH  =      F    aspherical Exc in radial PAW
   METAGGA=      F    non-selfconsistent MetaGGA calc.

 Electronic Relaxation 1
   ENCUT  =  440.0 eV  32.34 Ry    5.69 a.u.  21.78 21.38 23.60*2*pi/ulx,y,z
   ENINI  =  440.0     initial cutoff
   ENAUG  =  644.9 eV  augmentation charge cutoff
   NELM   =    100;   NELMIN=  2; NELMDL= -5     # of ELM steps
   EDIFF  = 0.1E-03   stopping-criterion for ELM
   LREAL  =      F    real-space projection
   NLSPLINE    = F    spline interpolate recip. space projectors
   LCOMPAT=      F    compatible to vasp.4.4
   GGA_COMPAT  = T    GGA compatible to vasp.4.4-vasp.4.6
   LMAXPAW     = -100 max onsite density
   LMAXMIX     =    2 max onsite mixed and CHGCAR
   VOSKOWN=      0    Vosko Wilk Nusair interpolation
   ROPT   =    0.00000   0.00000   0.00000   0.00000
   ROPT   =    0.00000
 Ionic relaxation
   EDIFFG = -.1E-01   stopping-criterion for IOM
   NSW    =      0    number of steps for IOM
   NBLOCK =      1;   KBLOCK =      1    inner block; outer block
   IBRION =     -1    ionic relax: 0-MD 1-quasi-New 2-CG
   NFREE  =      0    steps in history (QN), initial steepest desc. (CG)
   ISIF   =      2    stress and relaxation
   IWAVPR =     10    prediction:  0-non 1-charg 2-wave 3-comb
   ISYM   =      0    0-nonsym 1-usesym 2-fastsym
   LCORR  =      T    Harris-Foulkes like correction to forces

   POTIM  = 0.5000    time-step for ionic-motion
   TEIN   =    0.0    initial temperature
   TEBEG  =    0.0;   TEEND  =   0.0 temperature during run
   SMASS  =  -3.00    Nose mass-parameter (am)
   estimated Nose-frequenzy (Omega)   =  0.10E-29 period in steps =****** mass=  -0.371E-26a.u.
   SCALEE = 1.0000    scale energy and forces
   NPACO  =    256;   APACO  = 16.0  distance and # of slots for P.C.
   PSTRESS=    0.0 pullay stress

  Mass of Ions in am
   POMASS =  12.01 14.00 72.61 12.01 16.00
  Ionic Valenz
   ZVAL   =   4.00  5.00 14.00  4.00  6.00
  Atomic Wigner-Seitz radii
  virtual crystal weights
   VCA    =   1.00  1.00  1.00  1.00  1.00
   NELECT =     280.0000    total number of electrons
   NUPDOWN=      -1.0000    fix difference up-down

 DOS related values:
   EMIN   = -14.00;   EMAX   =  6.00  energy-range for DOS
   EFERMI =   0.00
   ISMEAR =    -5;   SIGMA  =   0.20  broadening in eV -4-tet -1-fermi 0-gaus

 Electronic relaxation 2 (details)
   IALGO  =     38    algorithm
   LDIAG  =      T    sub-space diagonalisation (order eigenvalues)
   LSUBROT=      F    optimize rotation matrix (better conditioning)
   TURBO    =      0    0=normal 1=particle mesh
   IRESTART =      0    0=no restart 2=restart with 2 vectors
   NREBOOT  =      0    no. of reboots
   NMIN     =      0    reboot dimension
   EREF     =   0.00    reference energy to select bands
   IMIX   =      4    mixing-type and parameters
     AMIX     =   0.25;   BMIX     =  0.00
     AMIX_MAG =   1.00;   BMIX_MAG =  0.00
     AMIN     =   0.10
     WC   =   100.;   INIMIX=   1;  MIXPRE=   1;  MAXMIX= -45

 Intra band minimization:
   WEIMIN = 0.0000     energy-eigenvalue tresh-hold
   EBREAK =  0.15E-06  absolut break condition
   DEPER  =   0.30     relativ break condition

   TIME   =   0.40     timestep for ELM

  volume/ion in A,a.u.               =      31.79       214.53
  Fermi-wavevector in a.u.,A,eV,Ry     =   0.868449  1.641131 10.261564  0.754204
  Thomas-Fermi vector in A             =   1.987129

 Write flags
   LWAVE        =      F    write WAVECAR
   LDOWNSAMPLE  =      F    k-point downsampling of WAVECAR
   LCHARG       =      F    write CHGCAR
   LVTOT        =      F    write LOCPOT, total local potential
   LVHAR        =      F    write LOCPOT, Hartree potential only
   LELF         =      F    write electronic localiz. function (ELF)
   LORBIT       =     11    0 simple, 1 ext, 2 COOP (PROOUT), +10 PAW based schemes

 Dipole corrections
   LMONO  =      F    monopole corrections only (constant potential shift)
   LDIPOL =      F    correct potential (dipole corrections)
   IDIPOL =      0    1-x, 2-y, 3-z, 4-all directions
   EPSILON=  1.0000000 bulk dielectric constant

 Exchange correlation treatment:
   GGA     =    --    GGA type
   VOSKOWN=      0    Vosko Wilk Nusair interpolation
   LHFCALC =     F    Hartree Fock is set to
   LHFONE  =     F    Hartree Fock one center treatment
   AEXX    =    0.0000 exact exchange contribution

 Linear response parameters
   LEPSILON=     F    determine dielectric tensor
   LRPA    =     F    only Hartree local field effects (RPA)
   LNABLA  =     F    use nabla operator in PAW spheres
   LVEL    =     F    velocity operator in full k-point grid
   LINTERFAST=   F  fast interpolation
   KINTER  =     0    interpolate to denser k-point grid
   CSHIFT  =0.1000    complex shift for real part using Kramers Kronig
   OMEGAMAX=  -1.0    maximum frequency
   DEG_THRESHOLD= 0.2000000E-02 threshold for treating states as degnerate
   RTIME   =   -0.100 relaxation time in fs
  (WPLASMAI=    0.000 imaginary part of plasma frequency in eV, 0.658/RTIME)
   DFIELD  = 0.0000000 0.0000000 0.0000000 field for delta impulse in time

 Orbital magnetization related:
   ORBITALMAG=     F  switch on orbital magnetization
[...]
  Total     355.55625   322.23048    73.67909    -4.41703    11.86132     7.22848
  in kB     303.71717   275.25020    62.93689    -3.77304    10.13197     6.17458

 VOLUME and BASIS-vectors are now :
  energy-cutoff  :      440.00
  volume of cell :     1875.64
      direct lattice vectors                 reciprocal lattice vectors
    12.735950296 -0.175481236  0.000000000     0.079163445  0.046852298 -0.000000000
    -6.367975148 10.759575714  0.000000000     0.001291101  0.093704596 -0.000000000
     0.000000000  0.000000000 13.800000000    -0.000000000 -0.000000000  0.072463768

  length of vectors
    12.737159165 12.502782772 13.800000000     0.091989069  0.093713491  0.072463768

 FORCES acting on ions
    electron-ion (+dipol)            ewald-force                    non-local-force                 convergence-correction
   -.652E+01 0.149E+02 0.127E+03   0.672E+01 -.160E+02 -.126E+03   -.246E+00 0.364E+01 -.168E+01   0.241E-01 0.175E-01 0.747E-02
   -.344E+01 0.349E+02 0.137E+03   0.374E+01 -.353E+02 -.137E+03   -.321E+01 0.661E+00 0.247E+00   0.235E-01 0.821E-02 0.792E-02
   -.126E+02 0.379E+02 0.135E+03   0.124E+02 -.382E+02 -.135E+03   0.290E+01 0.590E+00 0.609E+00   0.431E-01 0.243E-02 0.622E-02
   0.766E+02 -.642E+02 -.956E+02   -.800E+02 0.657E+02 0.964E+02   0.326E+01 -.175E+01 -.304E+00   -.985E-03 -.136E-01 0.331E-02
   -.192E+02 0.611E+02 0.217E+03   0.195E+02 -.640E+02 -.220E+03   -.404E+00 0.353E+01 0.204E+01   -.172E-01 0.235E-01 0.205E-01
   -.715E+02 -.189E+02 0.105E+03   0.747E+02 0.203E+02 -.106E+03   -.324E+01 -.163E+01 0.127E+01   -.922E-03 0.980E-02 0.347E-02
   0.482E+02 -.316E+02 -.375E+02   -.483E+02 0.311E+02 0.379E+02   0.635E+00 0.248E+01 0.862E+00   0.649E-02 0.138E-01 0.307E-02
   0.288E+02 -.211E+02 -.537E+02   -.279E+02 0.212E+02 0.536E+02   -.284E+01 -.191E+01 0.463E+00   0.873E-03 -.813E-02 0.739E-02
   -.649E+01 -.274E+01 -.659E+02   0.539E+01 0.261E+01 0.660E+02   0.320E+01 -.161E+01 0.313E+00   0.451E-02 -.304E-04 0.183E-02
   -.310E+02 0.199E+02 -.789E+02   0.292E+02 -.183E+02 0.805E+02   0.114E+01 -.192E+01 -.125E+01   0.748E-02 -.149E-01 -.100E-01
   -.404E+01 0.205E+02 0.525E+02   0.405E+01 -.245E+02 -.524E+02   0.824E-01 0.354E+01 -.649E+00   0.538E-02 -.154E-01 0.123E-01
   0.394E+02 0.180E+02 -.726E+02   -.375E+02 -.163E+02 0.743E+02   -.127E+01 -.233E+01 -.847E+00   0.225E-01 0.165E-01 0.947E-02
   -.385E+01 -.177E+02 -.174E+02   0.416E+01 0.162E+02 0.171E+02   -.149E+00 0.352E+01 -.687E+00   -.205E-01 0.152E-02 0.938E-03
   0.439E+02 0.324E+02 0.211E+03   -.432E+02 -.321E+02 -.210E+03   -.302E+01 -.136E+01 -.904E+00   -.243E-01 0.617E-02 0.796E-02
   -.145E+02 0.247E+02 0.945E+02   0.137E+02 -.250E+02 -.944E+02   0.320E+01 -.131E+01 -.509E+00   -.416E-01 0.164E-01 0.547E-02
   0.739E+02 -.173E+02 0.719E+02   -.773E+02 0.187E+02 -.729E+02   0.327E+01 -.172E+01 0.666E+00   0.706E-02 -.845E-02 0.677E-02
   0.738E+01 0.866E+02 0.232E+03   -.678E+01 -.896E+02 -.234E+03   -.711E-01 0.338E+01 0.193E+01   0.140E-01 0.812E-02 0.338E-02
   -.728E+02 -.673E+02 -.108E+03   0.763E+02 0.689E+02 0.109E+03   -.322E+01 -.169E+01 -.511E+00   -.586E-02 -.246E-01 0.573E-02
   -.412E+02 -.300E+02 -.154E+03   0.406E+02 0.300E+02 0.155E+03   -.344E+00 0.249E+01 0.929E+00   -.558E-02 -.134E-01 -.628E-02
   0.102E+02 -.387E+01 -.120E+03   -.934E+01 0.373E+01 0.120E+03   -.328E+01 -.152E+01 0.561E+00   -.939E-02 -.148E-01 0.171E-02
   -.319E+02 -.158E+02 -.972E+02   0.313E+02 0.159E+02 0.970E+02   0.283E+01 -.202E+01 0.988E+00   0.542E-02 -.244E-01 0.610E-02
   0.851E+02 -.785E+02 0.150E+03   -.876E+02 0.816E+02 -.151E+03   0.326E+01 -.233E+01 0.256E+00   0.358E-02 0.205E-01 0.819E-02
   -.118E+02 0.490E+02 -.208E+03   0.119E+02 -.528E+02 0.210E+03   -.594E-01 0.380E+01 -.164E+01   -.788E-02 0.193E-02 -.165E-02
   -.969E+02 -.285E+02 -.670E+02   0.100E+03 0.300E+02 0.685E+02   -.359E+01 -.115E+01 -.128E+01   -.373E-01 -.157E-01 -.697E-02
   -.167E+02 0.461E+02 0.181E+03   0.172E+02 -.470E+02 -.184E+03   -.347E+00 0.129E+01 0.290E+01   0.615E-01 0.211E-01 0.144E-01
   -.223E+03 -.339E+02 0.247E+03   0.260E+03 0.537E+02 -.262E+03   -.313E+02 -.165E+02 0.126E+02   0.803E-02 0.268E-01 0.676E-02
   0.180E+03 -.176E+03 -.264E+03   -.216E+03 0.196E+03 0.278E+03   0.308E+02 -.164E+02 -.108E+02   -.302E-03 -.125E-01 0.438E-02
   0.270E+01 0.197E+03 0.437E+03   0.352E+00 -.231E+03 -.465E+03   -.216E+01 0.290E+02 0.223E+02   -.330E-01 0.415E-01 0.296E-01
   -.449E+02 0.163E+03 0.459E+03   0.427E+02 -.195E+03 -.490E+03   0.205E+01 0.274E+02 0.252E+02   0.101E-01 0.376E-01 0.367E-01
   0.221E+03 -.113E+03 -.125E+03   -.256E+03 0.137E+03 0.126E+03   0.298E+02 -.195E+02 -.451E-01   -.216E-01 0.601E-02 0.586E-03
   -.166E+03 -.913E+02 0.282E+03   0.202E+03 0.103E+03 -.306E+03   -.303E+02 -.984E+01 0.196E+02   -.330E-03 0.162E-02 0.534E-02
   -.508E+01 -.519E+00 -.274E+02   0.540E+01 0.316E+00 0.288E+02   -.195E+00 0.917E-01 -.105E+01   -.183E-02 -.115E-02 0.441E-02
   0.205E+02 -.275E+02 -.108E+03   -.206E+02 0.284E+02 0.113E+03   0.236E+00 -.761E+00 -.399E+01   0.767E-02 -.442E-03 0.637E-02
   -.284E-02 -.707E+02 -.336E+03   0.257E+02 0.871E+02 0.366E+03   -.222E+02 -.137E+02 -.235E+02   0.290E-01 0.147E-01 0.820E-02
   0.789E+01 0.765E+02 -.852E+02   -.315E+02 -.722E+02 0.977E+02   0.191E+02 -.416E+01 -.105E+02   0.139E-01 0.918E-02 0.364E-02
   -.201E+02 0.127E+03 0.138E+03   0.235E+02 -.167E+03 -.151E+03   -.254E+01 0.339E+02 0.981E+01   0.204E-02 -.322E-01 0.154E-01
   0.551E+00 0.123E+03 0.154E+03   -.302E+01 -.163E+03 -.166E+03   0.172E+01 0.337E+02 0.989E+01   0.143E-01 -.189E-01 0.178E-01
   0.437E+02 -.690E+02 -.367E+03   -.747E+02 0.860E+02 0.389E+03   0.266E+02 -.142E+02 -.178E+02   -.148E-01 -.290E-01 -.137E-01
   -.147E+01 0.873E+02 -.121E+03   0.230E+02 -.838E+02 0.138E+03   -.175E+02 -.358E+01 -.142E+02   0.547E-01 0.287E-01 0.246E-01
   0.597E+02 0.209E+02 0.793E+02   -.651E+02 -.247E+02 -.792E+02   0.397E+01 0.282E+01 -.373E+00   0.168E-01 0.276E-01 0.134E-01
   0.169E+02 0.445E+02 0.164E+03   -.192E+02 -.464E+02 -.170E+03   0.197E+01 0.160E+01 0.401E+01   -.659E-01 0.188E-01 0.677E-02
   -.217E+03 -.119E+03 -.137E+03   0.252E+03 0.142E+03 0.138E+03   -.301E+02 -.186E+02 -.927E+00   -.458E-02 -.176E-01 0.122E-01
   0.171E+03 -.772E+02 0.219E+03   -.208E+03 0.883E+02 -.240E+03   0.313E+02 -.952E+01 0.166E+02   0.150E-03 -.251E-01 0.117E-01
   0.150E+02 0.189E+03 0.472E+03   -.989E+01 -.222E+03 -.501E+03   -.449E+01 0.283E+02 0.230E+02   0.423E-01 -.515E-02 -.451E-02
   0.713E+01 0.270E+03 0.395E+03   -.921E+01 -.311E+03 -.409E+03   0.107E+01 0.339E+02 0.108E+02   -.214E-02 -.140E-01 -.635E-02
   0.224E+03 -.352E+02 0.149E+03   -.261E+03 0.565E+02 -.156E+03   0.318E+02 -.176E+02 0.621E+01   0.231E-01 -.200E-02 0.859E-02
   -.164E+03 -.180E+03 -.324E+03   0.198E+03 0.200E+03 0.342E+03   -.294E+02 -.162E+02 -.138E+02   0.250E-02 -.340E-01 0.656E-02
   0.864E+00 -.396E+02 -.138E+02   -.745E+00 0.411E+02 0.110E+02   -.149E+00 -.112E+01 0.215E+01   -.239E-02 -.252E-01 0.971E-02
   -.200E+02 -.304E+02 -.209E+03   0.196E+02 0.328E+02 0.215E+03   0.162E+00 -.204E+01 -.536E+01   -.515E-02 -.201E-01 -.136E-05
   -.258E+03 -.755E+02 -.102E+03   0.295E+03 0.972E+02 0.104E+03   -.307E+02 -.183E+02 -.113E+01   -.318E-01 -.209E-01 -.538E-02
   0.205E+03 -.168E+03 0.336E+03   -.242E+03 0.187E+03 -.346E+03   0.308E+02 -.164E+02 0.661E+01   -.307E-01 0.219E-01 0.705E-02
   0.122E+01 0.169E+03 -.427E+03   0.418E+01 -.203E+03 0.455E+03   -.431E+01 0.286E+02 -.228E+02   0.260E-04 0.427E-02 -.109E-02
   -.403E+02 0.131E+03 -.480E+03   0.387E+02 -.162E+03 0.512E+03   0.128E+01 0.270E+02 -.262E+02   -.183E-01 -.404E-02 -.566E-02
   0.217E+03 -.147E+03 0.261E+03   -.247E+03 0.174E+03 -.276E+03   0.243E+02 -.225E+02 0.122E+02   0.659E-02 0.240E-01 0.937E-02
   -.192E+03 -.833E+02 -.208E+03   0.231E+03 0.937E+02 0.225E+03   -.321E+02 -.950E+01 -.141E+02   -.583E-01 -.427E-02 -.939E-02
   -.559E+02 0.241E+02 0.478E+02   0.597E+02 -.271E+02 -.509E+02   -.272E+01 0.216E+01 0.211E+01   -.173E-01 -.103E-01 -.316E-02
   0.504E+02 -.131E+03 -.108E+04   -.521E+02 0.151E+03 0.111E+04   0.137E+01 -.187E+02 -.239E+02   0.123E+00 0.516E-03 -.717E-01
   -.724E+02 -.165E+03 0.156E+03   0.834E+02 0.190E+03 -.185E+03   -.777E+01 -.176E+02 0.204E+02   0.255E-02 -.674E-03 -.545E-02
   0.603E+02 0.136E+03 -.834E+02   -.815E+02 -.184E+03 0.139E+03   0.180E+02 0.407E+02 -.473E+02   0.675E-02 0.408E-02 -.110E-01
   -.725E+01 -.270E+02 0.302E+02   0.000E+00 -.853E-13 -.108E-11   0.714E+01 0.270E+02 -.304E+02   0.113E+00 0.405E-02 0.230E+00

 POSITION                                       TOTAL-FORCE (eV/Angst)
     -0.01376      2.27883      6.02211        -0.021750      2.604003     -0.885252
      1.12296      4.23900      6.11448        -2.892304      0.289791      0.000130
     -1.17290      4.19710      6.03347         2.805482      0.298152      0.300390
      5.29063      0.60838      7.11547        -0.108352     -0.288664      0.541730
      3.20901      4.23785      5.82975        -0.192206      0.658242     -0.458848
      1.09103      0.54779      6.32870         0.038149     -0.215992     -0.241977
     -3.30594      7.64294      6.81474         0.535201      2.055608      1.264151
     -2.04657      9.52681      7.05348        -1.966880     -1.811448      0.305335
     -4.30822      9.61465      7.01103         2.105356     -1.740282      0.498468
      2.21338      5.82056      7.06317        -0.666681     -0.376485      0.324130
      0.03626      9.44623      6.88469         0.091349     -0.467263     -0.618202
     -2.34525      5.81756      6.77016         0.558859     -0.639685      0.914415
      6.42764      2.29048      6.66022         0.141099      2.025618     -1.052358
      7.45557      4.05590      5.65528        -2.290938     -0.989690     -0.532418
      5.26270      4.13564      6.14627         2.360093     -1.609548     -0.368986
     11.63260      0.39783      6.49456        -0.137436     -0.358013     -0.255157
      9.51954      3.99381      5.57245         0.551391      0.447166     -0.658998
      7.51413      0.59634      7.20294         0.288327     -0.120380      0.495929
      3.28125      7.54443      7.46813        -0.925556      2.482970      1.238502
      4.34566      9.51567      7.35265        -2.412900     -1.674310      1.239355
      2.07853      9.49579      7.33121         2.251539     -1.893390      0.861382
      8.36628      5.89120      5.93993         0.810584      0.800406     -0.190715
      6.41256      9.53464      7.51527         0.002318     -0.007310      0.773248
      4.38089      5.85883      6.89697        -0.554063      0.272004      0.264434
     -0.01321      3.58007      6.00229         0.224937      0.395900     -0.466669
      1.07306      1.70306      5.94604         5.714413      3.360554     -2.758521
      4.27116     -0.03957      7.34268        -5.594376      3.211729      3.497651
      4.27320      3.70261      5.55183         0.875045     -5.346066     -5.290175
      2.09308      3.82098      5.51549        -0.239030     -4.393696     -5.795057
      5.31458      1.81286      6.94239        -5.625935      4.700804      0.852317
     -4.27135     10.60496      6.30076         5.631906      1.672231     -4.735320
      0.01548      0.01968      6.80012         0.122392     -0.112665      0.321161
     -3.19404      8.91050      7.04048         0.183964      0.119596      1.014994
     -2.40234      6.91929      7.28238         3.529911      2.719243      5.699106
      1.12245      5.22614      6.92030        -4.446210      0.186009      2.004548
      1.11430      8.85061      6.89508         0.895844     -6.419803     -2.752269
     -1.03915      8.86477      6.75226        -0.758432     -6.394656     -2.765659
      2.22887      6.88498      7.65561        -4.389237      2.822121      4.964465
     -1.27470      5.17896      6.83150         4.040772      0.017053      3.172511
      9.42992      5.16283      6.15354        -1.381738     -0.913003     -0.277949
      6.39711      3.43521      6.06149        -0.433702     -0.276317     -1.186308
      7.52301      1.79616      6.97118         5.760001      4.526277      0.545060
      4.25495     10.46620      6.59322        -5.880457      1.497330     -4.388615
     -2.07695      3.74348      5.36437         0.639879     -4.639596     -5.791569
      8.47446      3.40671      5.37440        -1.014032     -6.931721     -3.154485
     11.62095      1.55825      6.14171        -5.919003      3.757271     -1.440940
      8.48527     -0.06095      7.58174         5.097510      3.281295      4.063295
      6.40500     -0.04681      7.01357        -0.033427      0.412132     -0.673280
      3.21157      8.83767      7.50885        -0.276892      0.356687      1.390887
      4.36343      7.04214      7.20891         6.229701      3.437758      0.156536
      7.37131      5.30552      5.59820        -6.610963      2.325028     -3.237960
     -5.23006      9.17508      7.70865         1.106168     -5.202401      5.169432
      5.34224      9.09952      7.94839        -0.356365     -4.190659      6.117624
     -4.25878      7.28633      6.13376        -4.958960      4.305043     -3.269321
      5.37320      5.16880      6.81363         6.629401      0.902236      3.480492
      3.24458      5.31038      6.58373         1.061498     -0.906230     -1.014280
     -0.12323      6.32884      7.83447        -0.195275      1.975737      2.798669
     -0.12323      6.32884     13.33607         3.209475      7.251122     -8.449696
     -0.41856      5.66106      0.31378        -3.209466     -7.247842      8.440635
    total drift:                                0.002356     -0.003241      0.028998

  FREE ENERGIE OF THE ION-ELECTRON SYSTEM (eV)
  free  energy   TOTEN  =      -466.19761269 eV

  energy  without entropy=     -466.19761269  energy(sigma->0) =     -466.19761269

 total charge

[...]

 magnetization (x)

# of ion       s       p       d       tot
    1       -0.000   0.000   0.000  -0.000
    2       -0.000  -0.000   0.000  -0.000
    3       -0.000   0.000   0.000   0.000
    4       -0.000   0.000   0.000   0.000
    5       -0.000  -0.000   0.000  -0.000
    6       -0.000   0.000   0.000  -0.000
    7       -0.000  -0.000   0.000  -0.000
    8        0.000   0.000   0.000   0.000
    9       -0.000   0.000   0.000  -0.000
   10       -0.000  -0.000   0.000  -0.000
   11       -0.000  -0.000   0.000  -0.000
   12       -0.000  -0.000   0.000  -0.000
   13       -0.000   0.000   0.000   0.000
   14        0.000   0.000   0.000   0.000
   15       -0.000  -0.000   0.000  -0.000
   16       -0.000  -0.000   0.000  -0.000
   17       -0.000   0.000   0.000   0.000
   18       -0.000   0.000   0.000   0.000
   19       -0.000  -0.000   0.000  -0.000
   20       -0.000  -0.000   0.000  -0.000
   21       -0.000  -0.000   0.000  -0.000
   22       -0.000   0.000   0.000   0.000
   23       -0.000   0.000   0.000  -0.000
   24       -0.000  -0.000   0.000  -0.000
   25       -0.000   0.000   0.000   0.000
   26       -0.000   0.000   0.000   0.000
   27       -0.000  -0.000   0.000  -0.000
   28        0.000  -0.000   0.000  -0.000
   29        0.000   0.000   0.000   0.000
   30        0.000   0.000   0.000   0.000
   31       -0.000   0.000   0.000  -0.000
   32       -0.000   0.000   0.000   0.000
   33        0.000   0.000   0.000   0.000
   34       -0.000   0.000   0.000   0.000
   35        0.000   0.000   0.000   0.000
   36       -0.000   0.000   0.000   0.000
   37        0.000   0.000   0.000   0.000
   38       -0.000   0.000   0.000   0.000
   39        0.000   0.000   0.000   0.000
   40        0.000   0.000   0.000   0.000
   41        0.000   0.000   0.000   0.000
   42        0.000  -0.000   0.000  -0.000
   43       -0.000  -0.000   0.000  -0.000
   44       -0.000   0.000   0.000   0.000
   45        0.000   0.000   0.000   0.000
   46        0.000   0.000   0.000   0.000
   47       -0.000  -0.000   0.000  -0.000
   48        0.000   0.000   0.000   0.000
   49        0.000   0.000   0.000   0.000
   50       -0.000   0.000   0.000   0.000
   51       -0.000   0.000   0.000  -0.000
   52       -0.000  -0.000   0.000  -0.000
   53       -0.000  -0.000   0.000  -0.000
   54        0.000   0.000   0.000   0.000
   55       -0.000   0.000   0.000   0.000
   56       -0.000  -0.000   0.000  -0.000
   57       -0.000  -0.000   0.000  -0.000
   58        0.000   0.000   0.000   0.000
   59        0.000  -0.000   0.000  -0.000
tot         -0.000   0.000   0.000  -0.000

 BZINTS: Fermi energy: -0.989247;280.000000 electrons
         Band energy:***********;  BLOECHL correction:  0.000000