 vasp.5.4.4.18Apr17-6-g9f103f2a35 (build Jan 14 2022 15:04:31) complex

 executed on             LinuxIFC date 2023.01.27  22:53:26

 INCAR:
 POTCAR:    PAW_PBE C 08Apr2002
 POTCAR:    PAW_PBE N 08Apr2002
 POTCAR:    PAW_PBE C 08Apr2002
 POTCAR:    PAW_PBE Cr_pv 02Aug2007
 POTCAR:    PAW_PBE C 08Apr2002
 POTCAR:    PAW_PBE O 08Apr2002
 POTCAR:    PAW_PBE C 08Apr2002
   VRHFIN =C: s2p2

   TITEL  = PAW_PBE C 08Apr2002
   POMASS =   12.011; ZVAL   =    4.000    mass and valenz
   ENMAX  =  400.000; ENMIN  =  300.000 eV

[...]

   TITEL  = PAW_PBE Cr_pv 02Aug2007
   POMASS =   51.996; ZVAL   =   12.000    mass and valenz
   ENMAX  =  265.681; ENMIN  =  199.261 eV

[...]

   TITEL  = PAW_PBE O 08Apr2002
   POMASS =   16.000; ZVAL   =    6.000    mass and valenz
   ENMAX  =  400.000; ENMIN  =  300.000 eV

  PAW_PBE C 08Apr2002                   :
  PAW_PBE N 08Apr2002                   :
  PAW_PBE C 08Apr2002                   :
  PAW_PBE Cr_pv 02Aug2007               :
  PAW_PBE C 08Apr2002                   :
  PAW_PBE O 08Apr2002                   :

 POSCAR: POSCAR-clean
  positions in direct lattice
  velocities in cartesian coordinates
 exchange correlation table for  LEXCH =        8
   RHO(1)=    0.500       N(1)  =     2000
   RHO(2)=  100.500       N(2)  =     4000

 VTST: version 3.2, (02/03/18)

 CHAIN: initializing optimizer

 OPT: Using VASP Dynamics algorithm
 CHAIN: Read ICHAIN            0

 POSCAR: POSCAR-clean
  positions in direct lattice
  velocities in cartesian coordinates

 ion  position               nearest neighbor table
   1  1.000  1.000  0.491-   2 1.43  60 1.43  70 1.44
   2  0.056  0.112  0.491-   1 1.43  13 1.43  15 1.44
   3  0.168  0.002  0.490-   4 1.43  62 1.43  60 1.43
   4  0.224  0.114  0.492-   3 1.43  15 1.43  17 1.44
   5  0.334  0.003  0.490-   6 1.42  62 1.43  64 1.43
   6  0.390  0.114  0.493-   5 1.42  19 1.43  17 1.44
   7  0.500  0.000  0.491-   8 1.42  64 1.42  66 1.44
   8  0.556  0.112  0.492-   7 1.42  21 1.43  19 1.44
   9  0.665  0.997  0.493-  66 1.42  10 1.42  68 1.44
  10  0.722  0.109  0.491-   9 1.42  23 1.43  21 1.43
  11  0.831  0.997  0.493-  12 1.43  70 1.43  68 1.44
  12  0.888  0.109  0.491-  11 1.43  23 1.43  13 1.43
  13  0.999  0.166  0.490-  14 1.43   2 1.43  12 1.43
  14  0.055  0.277  0.489-  13 1.43  27 1.43  25 1.43
  15  0.168  0.169  0.492-   4 1.43  16 1.43   2 1.44
  16  0.224  0.281  0.494-  15 1.43  27 1.43  29 1.44
  17  0.336  0.171  0.495-  18 1.43   4 1.44   6 1.44
  18  0.392  0.283  0.501-  17 1.43  29 1.44  31 1.44
  19  0.501  0.168  0.493-  20 1.42   6 1.43   8 1.44
  20  0.558  0.280  0.497-  19 1.42  33 1.43  31 1.45
  21  0.667  0.165  0.491-  22 1.42   8 1.43  10 1.43
  22  0.723  0.277  0.492-  21 1.42  35 1.43  33 1.43
  23  0.833  0.165  0.490-  24 1.42  10 1.43  12 1.43
  24  0.889  0.276  0.489-  23 1.42  25 1.43  35 1.43
  25  1.000  0.333  0.488-  26 1.42  24 1.43  14 1.43
  26  0.055  0.444  0.487-  39 1.42  37 1.42  25 1.42
  27  0.166  0.334  0.492-  28 1.42  14 1.43  16 1.43
  28  0.220  0.446  0.492-  41 1.41  27 1.42  39 1.42
  29  0.336  0.339  0.501-  30 1.43  16 1.44  18 1.44
  30  0.388  0.450  0.509-  41 1.42  29 1.43  71 1.95
  31  0.504  0.338  0.504-  32 1.42  18 1.44  20 1.45
  32  0.563  0.449  0.512-  43 1.41  31 1.42  71 1.99
  33  0.668  0.333  0.495-  34 1.42  22 1.43  20 1.43
  34  0.726  0.443  0.496-  43 1.41  33 1.42  45 1.42
  35  0.834  0.332  0.490-  36 1.42  22 1.43  24 1.43
  36  0.890  0.444  0.490-  45 1.42  37 1.42  35 1.42
  37  0.001  0.500  0.488-  36 1.42  26 1.42  38 1.42
  38  0.056  0.612  0.488-  49 1.42  47 1.42  37 1.42
  39  0.165  0.501  0.488-  26 1.42  40 1.42  28 1.42
  40  0.220  0.612  0.488-  51 1.42  49 1.42  39 1.42
  41  0.330  0.502  0.499-  28 1.41  30 1.42  42 1.43
  42  0.385  0.614  0.499-  53 1.37  51 1.41  41 1.43
  43  0.672  0.499  0.502-  34 1.41  32 1.41  44 1.43
  44  0.728  0.611  0.498-  57 1.41  55 1.41  43 1.43
  45  0.836  0.500  0.492-  36 1.42  34 1.42  46 1.42
  46  0.892  0.611  0.493-  47 1.41  45 1.42  57 1.42
  47  0.002  0.668  0.490-  46 1.41  38 1.42  48 1.43
  48  0.057  0.779  0.490-  61 1.42  47 1.43  59 1.43
  49  0.166  0.668  0.487-  38 1.42  40 1.42  50 1.42
  50  0.222  0.780  0.488-  63 1.42  49 1.42  61 1.43
  51  0.331  0.668  0.491-  42 1.41  52 1.42  40 1.42
  52  0.387  0.779  0.491-  51 1.42  65 1.42  63 1.42
  53  0.491  0.666  0.508-  42 1.37  54 1.38  71 2.03
  54  0.550  0.773  0.500-  53 1.38  65 1.44  67 1.44
  55  0.668  0.661  0.499-  44 1.41  56 1.42  71 2.00
  56  0.719  0.771  0.496-  55 1.42  67 1.45  69 1.45
  57  0.837  0.667  0.494-  44 1.41  58 1.42  46 1.42
  58  0.890  0.778  0.493-  57 1.42  59 1.43  69 1.43
  59  0.001  0.835  0.491-  60 1.42  58 1.43  48 1.43
  60  0.056  0.946  0.490-  59 1.42   1 1.43   3 1.43
  61  0.167  0.835  0.489-  48 1.42  62 1.42  50 1.43
  62  0.223  0.947  0.489-  61 1.42   5 1.43   3 1.43
  63  0.333  0.835  0.489-  64 1.42  50 1.42  52 1.42
  64  0.389  0.947  0.490-  63 1.42   7 1.42   5 1.43
  65  0.498  0.832  0.494-  52 1.42  66 1.42  54 1.44
  66  0.555  0.944  0.492-  65 1.42   9 1.42   7 1.44
  67  0.662  0.827  0.497-  68 1.43  54 1.44  56 1.45
  68  0.719  0.940  0.494-  67 1.43   9 1.44  11 1.44
  69  0.832  0.831  0.494-  70 1.43  58 1.43  56 1.45
  70  0.888  0.943  0.493-  69 1.43  11 1.43   1 1.44
  71  0.528  0.557  0.547-  72 1.93  30 1.95  32 1.99  55 2.00  53 2.03
  72  0.502  0.522  0.672-  73 1.16  71 1.93
  73  0.500  0.512  0.749-  72 1.16

IMPORTANT INFORMATION: All symmetrisations will be switched off!
NOSYMM: (Re-)initialisation of all symmetry stuff for point group C_1.

 KPOINTS: K-Points

Automatic generation of k-mesh.
Space group operators:
 irot       det(A)        alpha          n_x          n_y          n_z        tau_x        tau_y        tau_z
    1     1.000000     0.000000     1.000000     0.000000     0.000000     0.000000     0.000000     0.000000

 Subroutine IBZKPT returns following result:

 Found      5 irreducible k-points:

 Following reciprocal coordinates:
            Coordinates               Weight
  0.000000  0.000000  0.000000      1.000000
  0.333333  0.000000  0.000000      2.000000
 -0.000000  0.333333  0.000000      2.000000
  0.333333  0.333333  0.000000      2.000000
 -0.333333  0.333333  0.000000      2.000000

 Following cartesian coordinates:
            Coordinates               Weight
  0.000000  0.000000  0.000000      1.000000
  0.022424  0.013064  0.000000      2.000000
  0.000106  0.026129  0.000000      2.000000
  0.022529  0.039193  0.000000      2.000000
 -0.022318  0.013064  0.000000      2.000000

 TETIRR: Found     24 inequivalent tetrahedra from       54

 SYSTEM =  unknown system
 POSCAR =  POSCAR-clean

 Startparameter for this run:
   NWRITE =      2    write-flag & timer
   PREC   = normal    normal or accurate (medium, high low for compatibility)
   ISTART =      0    job   : 0-new  1-cont  2-samecut
   ICHARG =      2    charge: 1-file 2-atom 10-const
   ISPIN  =      2    spin polarized calculation?
   LNONCOLLINEAR =      F non collinear calculations
   LSORBIT =      F    spin-orbit coupling
   INIWAV =      1    electr: 0-lowe 1-rand  2-diag
   LASPH  =      F    aspherical Exc in radial PAW
   METAGGA=      F    non-selfconsistent MetaGGA calc.

 Electronic Relaxation 1
   ENCUT  =  440.0 eV  32.34 Ry    5.69 a.u.  25.49 25.31 25.66*2*pi/ulx,y,z
   ENINI  =  440.0     initial cutoff
   ENAUG  =  644.9 eV  augmentation charge cutoff
   NELM   =    100;   NELMIN=  2; NELMDL= -5     # of ELM steps
   EDIFF  = 0.1E-03   stopping-criterion for ELM
   LREAL  =      F    real-space projection
   NLSPLINE    = F    spline interpolate recip. space projectors
   LCOMPAT=      F    compatible to vasp.4.4
   GGA_COMPAT  = T    GGA compatible to vasp.4.4-vasp.4.6
   LMAXPAW     = -100 max onsite density
   LMAXMIX     =    2 max onsite mixed and CHGCAR
   VOSKOWN=      0    Vosko Wilk Nusair interpolation
   ROPT   =    0.00000   0.00000   0.00000   0.00000
   ROPT   =    0.00000   0.00000
 Ionic relaxation
   EDIFFG = -.1E-01   stopping-criterion for IOM
   NSW    =      0    number of steps for IOM
   NBLOCK =      1;   KBLOCK =      1    inner block; outer block
   IBRION =     -1    ionic relax: 0-MD 1-quasi-New 2-CG
   NFREE  =      0    steps in history (QN), initial steepest desc. (CG)
   ISIF   =      2    stress and relaxation
   IWAVPR =     10    prediction:  0-non 1-charg 2-wave 3-comb
   ISYM   =      0    0-nonsym 1-usesym 2-fastsym
   LCORR  =      T    Harris-Foulkes like correction to forces

   POTIM  = 0.5000    time-step for ionic-motion
   TEIN   =    0.0    initial temperature
   TEBEG  =    0.0;   TEEND  =   0.0 temperature during run
   SMASS  =  -3.00    Nose mass-parameter (am)
   estimated Nose-frequenzy (Omega)   =  0.10E-29 period in steps =****** mass=  -0.507E-26a.u.
   SCALEE = 1.0000    scale energy and forces
   NPACO  =    256;   APACO  = 16.0  distance and # of slots for P.C.
   PSTRESS=    0.0 pullay stress

  Mass of Ions in am
   POMASS =  12.01 14.00 12.01 52.00 12.01 16.00
  Ionic Valenz
   ZVAL   =   4.00  5.00  4.00 12.00  4.00  6.00
  Atomic Wigner-Seitz radii
  virtual crystal weights
   VCA    =   1.00  1.00  1.00  1.00  1.00  1.00
   NELECT =     303.0000    total number of electrons
   NUPDOWN=      -1.0000    fix difference up-down

 DOS related values:
   EMIN   = -14.00;   EMAX   =  6.00  energy-range for DOS
   EFERMI =   0.00
   ISMEAR =    -5;   SIGMA  =   0.20  broadening in eV -4-tet -1-fermi 0-gaus

 Electronic relaxation 2 (details)
   IALGO  =     38    algorithm
   LDIAG  =      T    sub-space diagonalisation (order eigenvalues)
   LSUBROT=      F    optimize rotation matrix (better conditioning)
   TURBO    =      0    0=normal 1=particle mesh
   IRESTART =      0    0=no restart 2=restart with 2 vectors
   NREBOOT  =      0    no. of reboots
   NMIN     =      0    reboot dimension
   EREF     =   0.00    reference energy to select bands
   IMIX   =      4    mixing-type and parameters
     AMIX     =   0.25;   BMIX     =  0.00
     AMIX_MAG =   1.00;   BMIX_MAG =  0.00
     AMIN     =   0.10
     WC   =   100.;   INIMIX=   1;  MIXPRE=   1;  MAXMIX= -45

 Intra band minimization:
   WEIMIN = 0.0000     energy-eigenvalue tresh-hold
   EBREAK =  0.13E-06  absolut break condition
   DEPER  =   0.30     relativ break condition

   TIME   =   0.40     timestep for ELM

  volume/ion in A,a.u.               =      39.06       263.59
  Fermi-wavevector in a.u.,A,eV,Ry     =   0.775422  1.465336  8.180906  0.601280
  Thomas-Fermi vector in A             =   1.877686

 Write flags
   LWAVE        =      F    write WAVECAR
   LDOWNSAMPLE  =      F    k-point downsampling of WAVECAR
   LCHARG       =      F    write CHGCAR
   LVTOT        =      F    write LOCPOT, total local potential
   LVHAR        =      F    write LOCPOT, Hartree potential only
   LELF         =      F    write electronic localiz. function (ELF)
   LORBIT       =     11    0 simple, 1 ext, 2 COOP (PROOUT), +10 PAW based schemes

 Dipole corrections
   LMONO  =      F    monopole corrections only (constant potential shift)
[...]
   0.435E+01 0.683E+01 0.192E+02   -.428E+01 -.697E+01 -.192E+02   -.141E-01 0.549E-01 0.122E-01   -.244E-02 -.118E-02 -.199E-02
   0.861E+01 0.650E+01 0.221E+02   -.864E+01 -.655E+01 -.222E+02   0.230E-01 0.100E+00 0.414E-01   -.213E-02 -.259E-02 -.225E-02
   0.135E+02 0.179E+02 0.209E+02   -.132E+02 -.180E+02 -.208E+02   -.148E+00 0.116E+00 -.101E+00   -.696E-02 -.453E-02 -.499E-02
   0.255E+02 0.152E+02 0.294E+02   -.255E+02 -.153E+02 -.296E+02   -.183E+00 0.471E-01 0.143E+00   -.124E-01 -.465E-02 -.743E-02
   0.644E+01 0.378E+02 0.228E+02   -.615E+01 -.370E+02 -.229E+02   -.319E+00 -.743E+00 0.138E+00   -.105E-01 -.189E-01 -.159E-01
   0.195E+02 0.650E+02 0.370E+02   -.128E+02 -.615E+02 -.353E+02   -.695E+01 -.359E+01 -.171E+01   -.461E-01 -.529E-01 -.442E-01
   -.819E+01 0.383E+02 0.129E+02   0.809E+01 -.370E+02 -.128E+02   0.159E+00 -.131E+01 -.105E+00   0.822E-02 -.220E-01 -.156E-01
   -.194E+02 0.527E+02 0.169E+02   0.124E+02 -.483E+02 -.155E+02   0.709E+01 -.442E+01 -.135E+01   0.488E-01 -.492E-01 -.410E-01
   -.134E+02 0.168E+02 0.121E+02   0.131E+02 -.168E+02 -.120E+02   0.233E+00 0.312E-01 -.117E+00   0.812E-02 -.421E-02 -.488E-02
   -.249E+02 0.106E+02 0.156E+02   0.245E+02 -.104E+02 -.157E+02   0.441E+00 -.105E+00 0.101E+00   0.122E-01 -.134E-02 -.692E-02
   -.484E+01 0.547E+01 0.144E+02   0.476E+01 -.558E+01 -.144E+02   0.433E-01 0.551E-02 -.979E-02   0.304E-02 -.153E-02 -.196E-02
   -.655E+01 0.582E+01 0.162E+02   0.648E+01 -.581E+01 -.162E+02   0.819E-01 0.437E-01 0.370E-01   0.216E-02 -.166E-02 -.216E-02
   0.133E+00 0.122E+01 0.187E+02   -.153E+00 -.127E+01 -.188E+02   0.376E-01 -.147E-02 0.355E-01   -.667E-04 -.153E-02 -.195E-02
   0.218E+01 -.103E+01 0.174E+02   -.228E+01 0.991E+00 -.174E+02   0.110E+00 0.814E-01 0.132E-01   -.562E-03 0.133E-02 -.192E-02
   0.158E+02 0.481E+01 0.273E+02   -.157E+02 -.504E+01 -.273E+02   0.283E-01 0.177E+00 -.274E-02   -.685E-02 -.167E-02 -.395E-02
   0.184E+02 -.157E+01 0.289E+02   -.188E+02 0.128E+01 -.289E+02   0.273E+00 0.322E+00 0.613E-01   -.704E-02 0.357E-03 -.379E-02
   0.472E+02 0.220E+02 0.398E+02   -.461E+02 -.234E+02 -.400E+02   -.816E+00 0.116E+01 0.297E+00   -.318E-01 -.134E-01 -.222E-01
   0.679E+02 0.218E+01 0.387E+02   -.711E+02 -.434E+01 -.389E+02   0.327E+01 0.236E+01 0.247E+00   -.330E-01 0.118E-01 -.214E-01
   -.442E+02 0.123E+02 0.246E+02   0.429E+02 -.128E+02 -.247E+02   0.120E+01 0.412E+00 0.137E+00   0.335E-01 -.676E-02 -.213E-01
   -.416E+02 -.157E+02 0.380E+02   0.403E+02 0.159E+02 -.382E+02   0.114E+01 -.182E+00 0.259E+00   0.308E-01 0.145E-01 -.208E-01
   -.140E+02 0.118E+01 0.145E+02   0.138E+02 -.129E+01 -.145E+02   0.145E+00 0.481E-01 0.457E-01   0.657E-02 0.907E-03 -.361E-02
   -.122E+02 -.274E+01 0.104E+02   0.120E+02 0.274E+01 -.103E+02   0.127E+00 0.622E-01 -.126E+00   0.565E-02 0.120E-02 -.374E-02
   -.707E+01 -.660E+01 0.124E+02   0.702E+01 0.655E+01 -.124E+02   0.920E-01 0.139E-01 -.110E-02   0.866E-03 0.178E-02 -.215E-02
   -.217E+01 -.539E+01 0.125E+02   0.203E+01 0.541E+01 -.126E+02   0.124E+00 -.209E-01 0.793E-02   0.551E-03 0.141E-02 -.186E-02
   0.843E+01 -.566E+01 0.216E+02   -.849E+01 0.562E+01 -.216E+02   0.123E+00 0.202E-01 0.422E-01   -.264E-02 0.177E-02 -.223E-02
   0.735E+01 -.562E+01 0.165E+02   -.741E+01 0.563E+01 -.164E+02   0.798E-01 -.382E-01 -.235E-01   -.241E-02 0.110E-02 -.193E-02
   0.330E+02 -.110E+02 0.342E+02   -.335E+02 0.110E+02 -.344E+02   0.540E+00 0.431E-01 0.231E+00   -.113E-01 0.428E-02 -.677E-02
   0.186E+02 -.204E+02 0.202E+02   -.188E+02 0.208E+02 -.201E+02   0.197E+00 -.293E+00 -.656E-01   -.698E-02 0.582E-02 -.456E-02
   0.473E+01 -.637E+02 0.265E+02   0.132E+02 0.531E+02 -.237E+02   -.181E+02 0.107E+02 -.274E+01   -.532E-01 0.657E-01 -.486E-01
   -.344E+01 -.683E+02 0.180E+02   0.403E+01 0.722E+02 -.184E+02   -.708E+00 -.391E+01 0.427E+00   -.538E-02 0.243E-01 -.139E-01
   -.131E+02 -.471E+02 0.791E+02   0.593E+01 0.423E+02 -.786E+02   0.730E+01 0.477E+01 -.420E+00   0.442E-01 0.494E-01 -.419E-01
   -.870E+01 -.385E+02 0.305E+02   0.884E+01 0.372E+02 -.307E+02   -.128E+00 0.137E+01 0.155E+00   0.104E-01 0.203E-01 -.137E-01
   -.243E+02 -.133E+02 0.166E+02   0.240E+02 0.131E+02 -.166E+02   0.347E+00 0.189E+00 0.310E-01   0.847E-02 0.470E-02 -.653E-02
   -.101E+02 -.171E+02 0.154E+02   0.976E+01 0.170E+02 -.154E+02   0.272E+00 0.101E-01 0.428E-01   0.444E-02 0.509E-02 -.424E-02
   -.547E+01 -.605E+01 0.117E+02   0.536E+01 0.609E+01 -.117E+02   0.143E+00 -.229E-01 -.138E-01   0.215E-02 0.124E-02 -.233E-02
   -.245E+01 -.492E+01 0.116E+02   0.244E+01 0.499E+01 -.116E+02   0.744E-01 -.430E-01 -.125E-01   0.814E-03 -.135E-02 -.191E-02
   0.940E+00 -.353E+01 0.144E+02   -.102E+01 0.361E+01 -.144E+02   0.105E+00 -.325E-01 0.204E-01   -.729E-03 0.401E-03 -.157E-02
   0.146E+01 -.153E+01 0.147E+02   -.150E+01 0.162E+01 -.147E+02   0.230E-01 -.938E-01 -.939E-02   -.734E-03 -.451E-03 -.168E-02
   0.879E+01 -.769E+01 0.158E+02   -.904E+01 0.789E+01 -.158E+02   0.217E+00 -.246E+00 0.252E-01   -.301E-02 0.113E-02 -.241E-02
   0.556E+01 -.627E+01 0.122E+02   -.565E+01 0.644E+01 -.122E+02   0.382E-01 -.201E+00 -.563E-01   -.199E-02 -.103E-03 -.197E-02
   0.656E+01 -.270E+02 0.173E+02   -.646E+01 0.274E+02 -.173E+02   -.518E-01 -.443E+00 0.550E-01   -.330E-02 0.870E-02 -.539E-02
   0.438E+01 -.151E+02 0.115E+02   -.429E+01 0.155E+02 -.116E+02   -.106E+00 -.378E+00 0.165E-01   0.768E-03 0.357E-02 -.294E-02
   -.884E+01 -.283E+02 0.132E+02   0.980E+01 0.279E+02 -.130E+02   -.870E+00 0.377E+00 -.164E+00   0.132E-02 0.186E-01 -.104E-01
   -.375E+01 -.155E+02 0.862E+01   0.376E+01 0.153E+02 -.867E+01   -.646E-01 0.217E+00 0.547E-01   0.161E-02 0.509E-02 -.399E-02
   -.434E+01 -.164E+02 0.160E+02   0.381E+01 0.161E+02 -.160E+02   0.502E+00 0.256E+00 0.535E-02   0.362E-02 0.697E-02 -.513E-02
   -.442E+01 -.105E+02 0.883E+01   0.437E+01 0.103E+02 -.884E+01   0.330E-01 0.148E+00 -.137E-01   -.212E-03 0.269E-02 -.289E-02
   -.448E+02 -.533E+02 -.305E+03   0.472E+02 0.485E+02 0.300E+03   -.227E+01 0.476E+01 0.510E+01   0.197E-02 0.269E-01 -.152E+00
   0.152E+02 0.913E+01 -.254E+03   -.160E+02 -.664E+01 0.235E+03   0.798E+00 -.247E+01 0.194E+02   -.423E-02 -.159E-01 0.479E-01
   -.534E+01 0.373E+02 -.671E+03   0.736E+01 -.439E+02 0.730E+03   -.205E+01 0.656E+01 -.587E+02   0.158E-02 -.126E-01 0.692E-01
   0.744E+01 -.129E+02 0.391E+02   -.128E-12 -.909E-12 -.682E-12   -.743E+01 0.129E+02 -.385E+02   -.140E-01 -.157E-02 -.555E+00

 POSITION                                       TOTAL-FORCE (eV/Angst)
      7.44535     12.72548      7.36766         0.037241      0.015908      0.007537
     -0.00132      1.42338      7.36041        -0.010521     -0.004940      0.017465
      2.48158      0.02141      7.34862         0.041328      0.036974      0.031879
      2.48399      1.44737      7.37780        -0.039516     -0.034117      0.020402
      4.96196      0.01541      7.35163        -0.058189      0.005254      0.012525
      4.96550      1.43667      7.38844         0.018673     -0.008446      0.001340
      7.44607     -0.02647      7.36575         0.089083      0.029471      0.010978
      7.45307      1.39328      7.37368        -0.027515      0.015726      0.020052
      2.48440     12.71401      7.39521         0.028098     -0.032501     -0.011299
      9.94226      1.35053      7.37104        -0.055265      0.002633     -0.001886
      4.95937     12.69779      7.38947         0.012404     -0.040290     -0.023127
     12.41516      1.33640      7.36142        -0.008651      0.044734     -0.005366
     13.65356      2.05705      7.35183         0.037419      0.007583     -0.003860
     -1.24497      3.54266      7.34054        -0.116086      0.022019      0.007718
      1.24022      2.14779      7.37885         0.040769     -0.012798      0.012568
      1.24269      3.57529      7.41669        -0.064501      0.016805     -0.010073
      3.72655      2.16758      7.41962        -0.020600      0.011454      0.025859
      3.72949      3.58933      7.51869         0.023104      0.041360      0.013277
      6.21507      2.12216      7.39849        -0.004120      0.013749      0.008937
      6.22263      3.54411      7.45099        -0.023016      0.011626     -0.004844
      8.70577      2.07317      7.37176         0.035631      0.026227     -0.002346
      8.71323      3.49257      7.37667         0.033230      0.011129      0.002208
     11.18106      2.05604      7.35335        -0.015093     -0.006420      0.007312
     11.18264      3.47939      7.33123         0.012207      0.027942      0.009534
     12.41685      4.19268      7.31938         0.052574     -0.083097      0.024701
     -2.49110      5.67650      7.31009        -0.010197      0.038233     -0.012331
     -0.01247      4.26195      7.37776         0.114448      0.003494      0.014445
     -0.03530      5.68496      7.38269        -0.171011     -0.005552     -0.026196
      2.47908      4.31117      7.52136        -0.017741      0.099942      0.044814
      2.42477      5.73461      7.64228        -0.263858     -0.131459     -0.046736
      4.99028      4.29299      7.55708         0.051435     -0.019825      0.002588
      5.04750      5.70415      7.68637         0.180433     -0.050282      0.021705
      7.48277      4.21148      7.42603        -0.032000      0.001316      0.026629
      7.51223      5.62678      7.44361         0.006909      0.041398     -0.029299
      9.95138      4.19791      7.34581        -0.032833     -0.110635      0.005896
      9.95783      5.62165      7.34266         0.008796      0.049355      0.000939
     -3.71754      6.39575      7.31599         0.018402     -0.049132     -0.002297
     -3.72299      7.81811      7.31803         0.006867      0.042624     -0.002090
     -1.26956      6.39138      7.32544         0.075304     -0.060548     -0.000132
     -1.27542      7.81142      7.31906        -0.081924      0.029710      0.005652
      1.18048      6.40023      7.48716         0.193116     -0.203060      0.046363
      1.16421      7.83324      7.47923         0.071354      0.205163      0.022003
      6.30011      6.33690      7.53149        -0.055536     -0.103922     -0.010064
      6.29258      7.76873      7.47008        -0.061824      0.048568     -0.018448
      8.73917      6.33949      7.38640        -0.046982     -0.059925     -0.008571
      8.73454      7.76133      7.38798        -0.041035      0.065223     -0.020115
     -4.94915      8.53663      7.34719         0.044155     -0.035361     -0.023543
     -4.96381      9.96171      7.34259        -0.013806      0.002740      0.003318
     -2.49784      8.53147      7.30937         0.051700     -0.020062      0.003492
     -2.49746      9.95562      7.32235         0.015363     -0.025208     -0.005953
     -0.05268      8.52810      7.36413         0.007496      0.038691     -0.003152
     -0.03417      9.94316      7.36878        -0.037269      0.028877      0.023842
      2.36422      8.48145      7.61357        -0.198368      0.127105      0.000767
      2.43746      9.85121      7.49476        -0.094092     -0.031633      0.020179
      5.03354      8.40591      7.48629         0.161175      0.048497      0.111347
      4.96779      9.82003      7.44411         0.000652      0.067802      0.011251
      7.50606      8.47806      7.41534        -0.003527      0.023263     -0.027843
      7.46630      9.89559      7.38941        -0.048964     -0.013146      0.002541
     -6.20112     10.67202      7.36117         0.040949      0.026798     -0.022198
     -6.20807     12.09232      7.35699         0.065470      0.019251     -0.022752
     -3.73076     10.67203      7.32859         0.023452      0.045979     -0.005750
     -3.72982     12.09558      7.33811        -0.016622     -0.000638      0.024461
     -1.26258     10.66238      7.34195        -0.031598     -0.038642     -0.015266
     -1.25310     12.08110      7.35268        -0.053516     -0.034366     -0.027306
      1.21927     10.61250      7.40847         0.047019     -0.032889     -0.005950
      1.23498     12.03376      7.38664        -0.004053     -0.000544     -0.019877
      3.70727     10.53856      7.46223         0.086670     -0.038674      0.011645
      3.71550     11.97043      7.41402        -0.056432      0.015975      0.005021
      6.20784     10.57396      7.40476        -0.024147     -0.046901     -0.020396
      6.20490     12.00003      7.38918        -0.020222     -0.005111     -0.028164
      3.71412      7.08920      8.20639         0.133057      0.016837     -0.162496
      3.59695      6.64624     10.07953         0.013620      0.005903      0.106778
      3.63673      6.51480     11.23559        -0.018974     -0.093212     -0.120242
    total drift:                               -0.002335      0.003324      0.008735

  FREE ENERGIE OF THE ION-ELECTRON SYSTEM (eV)
  free  energy   TOTEN  =      -671.56552068 eV

  energy  without entropy=     -671.56552068  energy(sigma->0) =     -671.56552068

 stress matrix after NEB project (eV)
     -5.37386      2.31123      0.03889
      2.31123     -4.43234     -0.33352
      0.03889     -0.33352     -3.79174
  FORCES: max atom, RMS     0.298474    0.098576
  FORCE total and by dimension    0.842237    0.263858
  Stress total and by dimension    8.591296    5.373856

 total charge

[...]

 magnetization (x)

# of ion       s       p       d       tot
    1       -0.000  -0.007   0.000  -0.007
    2        0.000   0.004   0.000   0.004
    3       -0.000  -0.007   0.000  -0.008
    4        0.001   0.006   0.000   0.006
    5       -0.000  -0.007   0.000  -0.007
    6        0.001   0.009   0.000   0.010
    7       -0.000  -0.006   0.000  -0.006
    8        0.000   0.004   0.000   0.004
    9       -0.001  -0.009   0.000  -0.009
   10        0.000   0.005   0.000   0.005
   11       -0.001  -0.010   0.000  -0.011
   12        0.001   0.007   0.000   0.007
   13       -0.001  -0.010   0.000  -0.011
   14        0.001   0.007   0.000   0.008
   15       -0.001  -0.009   0.000  -0.010
   16        0.001   0.010   0.000   0.012
   17       -0.001  -0.011   0.000  -0.012
   18        0.002   0.017   0.000   0.019
   19       -0.001  -0.010   0.000  -0.010
   20        0.001   0.009   0.000   0.010
   21       -0.001  -0.009   0.000  -0.010
   22        0.001   0.009   0.000   0.009
   23       -0.001  -0.014   0.000  -0.015
   24        0.001   0.006   0.000   0.006
   25       -0.001  -0.016   0.000  -0.016
   26        0.001   0.005   0.000   0.006
   27       -0.001  -0.021   0.000  -0.023
   28        0.001   0.009   0.000   0.010
   29       -0.003  -0.029   0.000  -0.031
   30        0.011   0.063   0.000   0.074
   31       -0.002  -0.026   0.000  -0.029
   32        0.010   0.048   0.000   0.058
   33       -0.001  -0.020   0.000  -0.022
   34        0.001   0.010   0.000   0.011
   35       -0.001  -0.016   0.000  -0.017
   36        0.001   0.006   0.000   0.006
   37       -0.000  -0.005   0.000  -0.006
   38        0.000   0.004   0.000   0.005
   39       -0.001  -0.009   0.000  -0.010
   40        0.000   0.005   0.000   0.005
   41       -0.005  -0.037   0.000  -0.042
   42       -0.002  -0.011   0.000  -0.013
   43       -0.006  -0.046   0.000  -0.052
   44       -0.002   0.004   0.000   0.002
   45       -0.001  -0.013   0.000  -0.014
   46        0.000   0.006   0.000   0.006
   47       -0.001  -0.007   0.000  -0.008
   48        0.000   0.005   0.000   0.005
   49       -0.000  -0.007   0.000  -0.007
   50        0.000   0.001   0.000   0.001
   51       -0.000  -0.001   0.000  -0.001
   52       -0.000  -0.010   0.000  -0.010
   53        0.001  -0.015   0.000  -0.014
   54       -0.001  -0.007   0.000  -0.008
   55        0.002  -0.012   0.000  -0.010
   56       -0.000   0.005   0.000   0.005
   57       -0.001  -0.006   0.000  -0.007
   58        0.000   0.005   0.000   0.006
   59       -0.001  -0.008   0.000  -0.008
   60        0.000   0.004   0.000   0.005
   61       -0.000  -0.005   0.000  -0.005
   62        0.000   0.003   0.000   0.003
   63       -0.000  -0.005   0.000  -0.005
   64        0.000   0.002   0.000   0.003
   65       -0.000  -0.005   0.000  -0.005
   66        0.000   0.006   0.000   0.006
   67       -0.001  -0.014   0.000  -0.015
   68        0.000   0.002   0.000   0.002
   69       -0.000  -0.008   0.000  -0.008
   70        0.000   0.002   0.000   0.003
   71       -0.023  -0.055  -1.977  -2.055
   72        0.004  -0.063   0.000  -0.059
   73       -0.001  -0.110   0.000  -0.111
tot         -0.018  -0.411  -1.977  -2.405

 BZINTS: Fermi energy: -2.365141;303.000000 electrons
         Band energy:***********;  BLOECHL correction: -0.006479