 vasp.5.4.4.18Apr17-6-g9f103f2a35 (build Nov  8 2022 18:58:45) complex
 executed on             LinuxGNU date 2023.04.13  15:54:36

 INCAR:
 POTCAR:    PAW_PBE C 08Apr2002
 POTCAR:    PAW_PBE N 08Apr2002
 POTCAR:    PAW_PBE Ge_d 03Jul2007
 POTCAR:    PAW_PBE C 08Apr2002
 POTCAR:    PAW_PBE O 08Apr2002
 POTCAR:    PAW_PBE C 08Apr2002
   VRHFIN =C: s2p2

   TITEL  = PAW_PBE C 08Apr2002
   POMASS =   12.011; ZVAL   =    4.000    mass and valenz
   ENMAX  =  400.000; ENMIN  =  300.000 eV

[...]

   TITEL  = PAW_PBE Ge_d 03Jul2007
   POMASS =   72.610; ZVAL   =   14.000    mass and valenz
   ENMAX  =  310.294; ENMIN  =  232.720 eV

[...]

   TITEL  = PAW_PBE O 08Apr2002
   POMASS =   16.000; ZVAL   =    6.000    mass and valenz
   ENMAX  =  400.000; ENMIN  =  300.000 eV

  PAW_PBE C 08Apr2002                   :
  PAW_PBE N 08Apr2002                   :
  PAW_PBE Ge_d 03Jul2007                :
  PAW_PBE C 08Apr2002                   :
  PAW_PBE O 08Apr2002                   :

 POSCAR: POSCAR-c3n4
  positions in cartesian coordinates
 exchange correlation table for  LEXCH =        8
   RHO(1)=    0.500       N(1)  =     2000
   RHO(2)=  100.500       N(2)  =     4000

 ion  position               nearest neighbor table
   1  0.106  0.214  0.436-  26 1.13  46 1.13  25 1.19   6 1.90  16 1.90   3 2.05   2 2.07
   2  0.288  0.399  0.443-  29 1.11  35 1.16  25 1.20   5 1.92  10 1.96   1 2.07
   3  0.104  0.392  0.437-  44 1.11  39 1.16  25 1.20  17 1.91  12 1.95   1 2.05
   4  0.447  0.064  0.516-  30 1.11  27 1.12  48 1.18  13 1.90   8 1.90  18 2.03  11 2.04
   5  0.453  0.401  0.422-  28 1.12  29 1.12  56 1.20  15 1.90   2 1.92  10 2.05  24 2.07
   6  0.112  0.053  0.459-  26 1.11  31 1.12  32 1.18   9 1.89   1 1.90  16 2.01  23 2.05
   7  0.096  0.712  0.494-  54 1.12  34 1.14  33 1.18  12 1.88  22 1.91   9 2.03
   8  0.284  0.890  0.511-  27 1.12  37 1.13  33 1.19   4 1.90  11 1.91   9 2.07
   9  0.109  0.895  0.508-  31 1.11  52 1.13  33 1.20   6 1.89  23 1.90   7 2.03   8 2.07
  10  0.448  0.548  0.512-  38 1.11  56 1.14  35 1.14  19 1.89   2 1.96  24 1.99   5 2.05  57 2.29

  11  0.445  0.885  0.499-  37 1.12  36 1.12  48 1.16  21 1.91   8 1.91  18 2.04   4 2.04
  12  0.087  0.542  0.491-  34 1.11  40 1.13  39 1.14   7 1.88   3 1.95  22 2.01  17 2.02  57 2.30

  13  0.616  0.223  0.483-  42 1.13  30 1.14  41 1.18   4 1.90  18 1.90  15 2.05
  14  0.780  0.390  0.410-  45 1.13  51 1.14  41 1.18  17 1.89  22 1.89  15 2.05
  15  0.610  0.394  0.445-  28 1.13  55 1.13  41 1.22  24 1.90   5 1.90  13 2.05  14 2.05
  16  0.940  0.052  0.471-  46 1.11  43 1.12  32 1.17  20 1.89   1 1.90   6 2.01  23 2.04
  17  0.941  0.387  0.404-  45 1.11  44 1.13  40 1.19  14 1.89   3 1.91  12 2.02  22 2.05
  18  0.623  0.066  0.522-  42 1.12  47 1.13  48 1.18  13 1.90  21 1.90   4 2.03  11 2.04
  19  0.613  0.711  0.541-  50 1.11  38 1.15  49 1.18  10 1.89  24 1.91  20 2.05
  20  0.790  0.897  0.533-  43 1.11  53 1.13  49 1.21  16 1.89  23 1.89  19 2.05  21 2.07
  21  0.609  0.892  0.531-  47 1.12  36 1.13  49 1.21  18 1.90  11 1.91  20 2.07
  22  0.938  0.563  0.430-  51 1.10  54 1.13  40 1.19  14 1.89   7 1.91  12 2.01  17 2.05
  23  0.954  0.902  0.545-  52 1.13  53 1.13  32 1.17  20 1.89   9 1.90  16 2.04   6 2.05
  24  0.621  0.555  0.500-  55 1.11  50 1.12  56 1.19  15 1.90  19 1.91  10 1.99   5 2.07
  25  0.167  0.335  0.435-   1 1.19   3 1.20   2 1.20
  26  0.165  0.161  0.431-   6 1.11   1 1.13
  27  0.336  0.002  0.532-   8 1.12   4 1.12
  28  0.512  0.352  0.402-   5 1.12  15 1.13
  29  0.345  0.361  0.400-   2 1.11   5 1.12
  30  0.506  0.177  0.503-   4 1.11  13 1.14
  31  0.159  0.988  0.457-   9 1.11   6 1.12
  32  0.002  0.002  0.493-  16 1.17  23 1.17   6 1.18
  33  0.165  0.831  0.510-   7 1.18   8 1.19   9 1.20
  34  0.134  0.645  0.528-  12 1.11   7 1.14  57 2.21
  35  0.334  0.491  0.501-  10 1.14   2 1.16  57 1.73
  36  0.503  0.831  0.500-  11 1.12  21 1.13
  37  0.333  0.829  0.489-  11 1.12   8 1.13
  38  0.499  0.648  0.555-  10 1.11  19 1.15  57 2.21
  39  0.142  0.484  0.495-  12 1.14   3 1.16  57 1.75
  40  0.988  0.496  0.446-  12 1.13  22 1.19  17 1.19
  41  0.667  0.330  0.439-  13 1.18  14 1.18  15 1.22
  42  0.680  0.178  0.505-  18 1.12  13 1.13
  43  0.827  0.986  0.478-  20 1.11  16 1.12
  44  0.011  0.348  0.389-   3 1.11  17 1.13
  45  0.830  0.330  0.389-  17 1.11  14 1.13
  46  0.993  0.161  0.445-  16 1.11   1 1.13
  47  0.669  0.005  0.549-  21 1.12  18 1.13
  48  0.505  0.004  0.508-  11 1.16  18 1.18   4 1.18
  49  0.668  0.832  0.544-  19 1.18  21 1.21  20 1.21
  50  0.675  0.666  0.522-  19 1.11  24 1.12
  51  0.832  0.507  0.406-  22 1.10  14 1.14
  52  0.016  0.853  0.559-  23 1.13   9 1.13
  53  0.849  0.860  0.576-  20 1.13  23 1.13
  54  0.004  0.677  0.444-   7 1.12  22 1.13
  55  0.668  0.491  0.494-  24 1.11  15 1.13
  56  0.506  0.502  0.477-  10 1.14  24 1.19   5 1.20
  57  0.287  0.593  0.568-  35 1.73  39 1.75  34 2.21  38 2.21  10 2.29  12 2.30
  58  0.287  0.593  0.966-  59 0.97
  59  0.232  0.530  0.023-  58 0.97

IMPORTANT INFORMATION: All symmetrisations will be switched off!
NOSYMM: (Re-)initialisation of all symmetry stuff for point group C_1.

 KPOINTS: K-Points

Automatic generation of k-mesh.
Space group operators:
 irot       det(A)        alpha          n_x          n_y          n_z        tau_x        tau_y        tau_z
    1     1.000000     0.000000     1.000000     0.000000     0.000000     0.000000     0.000000     0.000000

 Subroutine IBZKPT returns following result:

 Found      5 irreducible k-points:

 Following reciprocal coordinates:
            Coordinates               Weight
  0.000000  0.000000  0.000000      1.000000
  0.333333  0.000000  0.000000      2.000000
  0.000000  0.333333  0.000000      2.000000
  0.333333  0.333333  0.000000      2.000000
 -0.333333  0.333333  0.000000      2.000000

 Following cartesian coordinates:
            Coordinates               Weight
  0.000000  0.000000  0.000000      1.000000
  0.024277  0.014368  0.000000      2.000000
  0.000396  0.028736  0.000000      2.000000
  0.024673  0.043104  0.000000      2.000000
 -0.023881  0.014368  0.000000      2.000000

 TETIRR: Found     24 inequivalent tetrahedra from       54

 SYSTEM =  unknown system
 POSCAR =  POSCAR-c3n4

 Startparameter for this run:
   NWRITE =      2    write-flag & timer
   PREC   = normal    normal or accurate (medium, high low for compatibility)
   ISTART =      0    job   : 0-new  1-cont  2-samecut
   ICHARG =      2    charge: 1-file 2-atom 10-const
   ISPIN  =      2    spin polarized calculation?
   LNONCOLLINEAR =      F non collinear calculations
   LSORBIT =      F    spin-orbit coupling
   INIWAV =      1    electr: 0-lowe 1-rand  2-diag
   LASPH  =      F    aspherical Exc in radial PAW
   METAGGA=      F    non-selfconsistent MetaGGA calc.

 Electronic Relaxation 1
   ENCUT  =  440.0 eV  32.34 Ry    5.69 a.u.  19.89 19.52 21.55*2*pi/ulx,y,z
   ENINI  =  440.0     initial cutoff
   ENAUG  =  644.9 eV  augmentation charge cutoff
   NELM   =    100;   NELMIN=  2; NELMDL= -5     # of ELM steps
   EDIFF  = 0.1E-03   stopping-criterion for ELM
   LREAL  =      F    real-space projection
   NLSPLINE    = F    spline interpolate recip. space projectors
   LCOMPAT=      F    compatible to vasp.4.4
   GGA_COMPAT  = T    GGA compatible to vasp.4.4-vasp.4.6
   LMAXPAW     = -100 max onsite density
   LMAXMIX     =    2 max onsite mixed and CHGCAR
   VOSKOWN=      0    Vosko Wilk Nusair interpolation
   ROPT   =    0.00000   0.00000   0.00000   0.00000
   ROPT   =    0.00000
 Ionic relaxation
   EDIFFG = -.1E-01   stopping-criterion for IOM
   NSW    =      0    number of steps for IOM
   NBLOCK =      1;   KBLOCK =      1    inner block; outer block
   IBRION =     -1    ionic relax: 0-MD 1-quasi-New 2-CG
   NFREE  =      0    steps in history (QN), initial steepest desc. (CG)
   ISIF   =      2    stress and relaxation
   IWAVPR =     10    prediction:  0-non 1-charg 2-wave 3-comb
   ISYM   =      0    0-nonsym 1-usesym 2-fastsym
   LCORR  =      T    Harris-Foulkes like correction to forces

   POTIM  = 0.5000    time-step for ionic-motion
   TEIN   =    0.0    initial temperature
   TEBEG  =    0.0;   TEEND  =   0.0 temperature during run
   SMASS  =  -3.00    Nose mass-parameter (am)
   estimated Nose-frequenzy (Omega)   =  0.10E-29 period in steps =****** mass=  -0.309E-26a.u.
   SCALEE = 1.0000    scale energy and forces
   NPACO  =    256;   APACO  = 16.0  distance and # of slots for P.C.
   PSTRESS=    0.0 pullay stress

  Mass of Ions in am
   POMASS =  12.01 14.00 72.61 12.01 16.00
  Ionic Valenz
   ZVAL   =   4.00  5.00 14.00  4.00  6.00
  Atomic Wigner-Seitz radii
  virtual crystal weights
   VCA    =   1.00  1.00  1.00  1.00  1.00
   NELECT =     280.0000    total number of electrons
   NUPDOWN=      -1.0000    fix difference up-down

 DOS related values:
   EMIN   = -14.00;   EMAX   =  6.00  energy-range for DOS
   EFERMI =   0.00
   ISMEAR =    -5;   SIGMA  =   0.20  broadening in eV -4-tet -1-fermi 0-gaus

 Electronic relaxation 2 (details)
   IALGO  =     38    algorithm
   LDIAG  =      T    sub-space diagonalisation (order eigenvalues)
   LSUBROT=      F    optimize rotation matrix (better conditioning)
   TURBO    =      0    0=normal 1=particle mesh
   IRESTART =      0    0=no restart 2=restart with 2 vectors
   NREBOOT  =      0    no. of reboots
   NMIN     =      0    reboot dimension
   EREF     =   0.00    reference energy to select bands
   IMIX   =      4    mixing-type and parameters
     AMIX     =   0.25;   BMIX     =  0.00
     AMIX_MAG =   1.00;   BMIX_MAG =  0.00
     AMIN     =   0.10
     WC   =   100.;   INIMIX=   1;  MIXPRE=   1;  MAXMIX= -45

 Intra band minimization:
   WEIMIN = 0.0000     energy-eigenvalue tresh-hold
   EBREAK =  0.15E-06  absolut break condition
   DEPER  =   0.30     relativ break condition

   TIME   =   0.40     timestep for ELM

  volume/ion in A,a.u.               =      24.20       163.29
  Fermi-wavevector in a.u.,A,eV,Ry     =   0.951158  1.797429 12.309223  0.904702
  Thomas-Fermi vector in A             =   2.079602

 Write flags
   LWAVE        =      F    write WAVECAR
   LDOWNSAMPLE  =      F    k-point downsampling of WAVECAR
   LCHARG       =      F    write CHGCAR
   LVTOT        =      F    write LOCPOT, total local potential
   LVHAR        =      F    write LOCPOT, Hartree potential only
   LELF         =      F    write electronic localiz. function (ELF)
   LORBIT       =     11    0 simple, 1 ext, 2 COOP (PROOUT), +10 PAW based schemes

 Dipole corrections
   LMONO  =      F    monopole corrections only (constant potential shift)
   LDIPOL =      F    correct potential (dipole corrections)
   IDIPOL =      0    1-x, 2-y, 3-z, 4-all directions
   EPSILON=  1.0000000 bulk dielectric constant

 Exchange correlation treatment:
   GGA     =    --    GGA type
   VOSKOWN=      0    Vosko Wilk Nusair interpolation
   LHFCALC =     F    Hartree Fock is set to
   LHFONE  =     F    Hartree Fock one center treatment
   AEXX    =    0.0000 exact exchange contribution

 Linear response parameters
   LEPSILON=     F    determine dielectric tensor
[...]
  Total     933.82729   849.05999   207.82532   -10.53202    30.58869    18.46859
  in kB    1047.98054   952.85109   233.23038   -11.81948    34.32792    20.72623

 VOLUME and BASIS-vectors are now :
  energy-cutoff  :      440.00
  volume of cell :     1427.66
      direct lattice vectors                 reciprocal lattice vectors
    11.628476357 -0.160221998  0.000000000     0.086702821  0.051314422 -0.000000000
    -5.814238179  9.823960435  0.000000000     0.001414063  0.102628844 -0.000000000
     0.000000000  0.000000000 12.600000000    -0.000000000 -0.000000000  0.079365079

  length of vectors
    11.629580107 11.415584270 12.600000000     0.100749933  0.102638585  0.079365079

 FORCES acting on ions
    electron-ion (+dipol)            ewald-force                    non-local-force                 convergence-correction
   -.783E+01 0.219E+02 0.150E+03   0.806E+01 -.192E+02 -.151E+03   -.241E+00 0.416E+01 -.144E+01   -.308E-02 -.805E-02 0.342E-02
   -.871E+01 0.420E+02 0.164E+03   0.449E+01 -.423E+02 -.165E+03   -.375E+01 0.121E+01 0.284E+00   0.726E-02 -.158E-01 -.667E-02
   -.105E+02 0.456E+02 0.162E+03   0.149E+02 -.458E+02 -.162E+03   0.336E+01 0.114E+01 0.684E+00   -.133E-01 -.167E-01 -.716E-02
   0.922E+02 -.777E+02 -.114E+03   -.959E+02 0.788E+02 0.116E+03   0.396E+01 -.208E+01 -.486E+00   0.199E-01 -.592E-02 -.192E-02
   -.236E+02 0.746E+02 0.260E+03   0.234E+02 -.767E+02 -.264E+03   -.345E+00 0.432E+01 0.267E+01   0.100E-01 0.530E-03 0.357E-02
   -.862E+02 -.232E+02 0.126E+03   0.896E+02 0.243E+02 -.128E+03   -.389E+01 -.200E+01 0.163E+01   -.103E-01 -.423E-02 0.407E-02
   0.586E+02 -.347E+02 -.429E+02   -.579E+02 0.373E+02 0.454E+02   0.869E+00 0.273E+01 0.868E+00   -.956E-02 0.439E-02 -.483E-02
   0.314E+02 -.281E+02 -.641E+02   -.335E+02 0.254E+02 0.643E+02   -.312E+01 -.222E+01 0.618E+00   -.153E-02 0.634E-02 0.542E-02
   -.434E+01 -.613E+01 -.782E+02   0.647E+01 0.313E+01 0.792E+02   0.356E+01 -.170E+01 0.379E+00   0.199E-02 0.695E-03 -.318E-02
   -.377E+02 0.226E+02 -.945E+02   0.350E+02 -.220E+02 0.965E+02   0.124E+01 -.208E+01 -.150E+01   0.231E-01 0.215E-02 0.179E-02
   -.476E+01 0.246E+02 0.621E+02   0.485E+01 -.294E+02 -.629E+02   0.101E+00 0.419E+01 -.624E+00   0.192E-02 0.264E-01 0.139E-01
   0.477E+02 0.201E+02 -.860E+02   -.450E+02 -.196E+02 0.892E+02   -.133E+01 -.260E+01 -.974E+00   -.205E-01 -.474E-02 -.885E-02
   -.440E+01 -.180E+02 -.225E+02   0.499E+01 0.194E+02 0.205E+02   -.270E+00 0.405E+01 -.853E+00   0.412E-02 -.343E-02 -.414E-02
   0.492E+02 0.372E+02 0.252E+03   -.518E+02 -.384E+02 -.252E+03   -.355E+01 -.141E+01 -.118E+01   0.540E-02 -.316E-02 0.828E-02
   -.137E+02 0.268E+02 0.113E+03   0.164E+02 -.300E+02 -.113E+03   0.366E+01 -.132E+01 -.512E+00   0.267E-02 -.151E-02 0.779E-03
   0.889E+02 -.216E+02 0.860E+02   -.927E+02 0.224E+02 -.874E+02   0.393E+01 -.210E+01 0.861E+00   0.669E-02 -.669E-02 0.535E-02
   0.990E+01 0.105E+03 0.277E+03   -.813E+01 -.107E+03 -.281E+03   -.264E+00 0.407E+01 0.241E+01   -.975E-02 0.178E-02 0.545E-02
   -.875E+02 -.812E+02 -.129E+03   0.916E+02 0.827E+02 0.131E+03   -.387E+01 -.197E+01 -.679E+00   -.148E-01 -.653E-02 -.311E-02
   -.509E+02 -.323E+02 -.183E+03   0.487E+02 0.360E+02 0.186E+03   -.430E+00 0.275E+01 0.849E+00   0.106E-01 0.840E-02 -.106E-03
   0.833E+01 -.741E+01 -.141E+03   -.112E+02 0.448E+01 0.144E+03   -.364E+01 -.161E+01 0.601E+00   -.648E-02 0.704E-03 -.243E-02
   -.346E+02 -.219E+02 -.115E+03   0.376E+02 0.191E+02 0.116E+03   0.300E+01 -.235E+01 0.129E+01   0.589E-02 0.811E-02 0.693E-02
   0.104E+03 -.930E+02 0.180E+03   -.105E+03 0.978E+02 -.181E+03   0.379E+01 -.303E+01 0.474E+00   0.330E-02 -.106E-01 0.411E-02
   -.141E+02 0.592E+02 -.248E+03   0.142E+02 -.634E+02 0.252E+03   -.937E-01 0.447E+01 -.197E+01   -.425E-02 0.113E-01 -.128E-01
   -.118E+03 -.341E+02 -.799E+02   0.120E+03 0.359E+02 0.822E+02   -.430E+01 -.154E+01 -.159E+01   -.526E-02 -.214E-02 -.936E-03
   -.196E+02 0.561E+02 0.216E+03   0.206E+02 -.564E+02 -.221E+03   -.320E+00 0.170E+01 0.346E+01   -.174E-01 -.197E-01 0.171E-03
   -.262E+03 -.379E+02 0.293E+03   0.312E+03 0.645E+02 -.314E+03   -.326E+02 -.166E+02 0.134E+02   -.123E-01 -.131E-01 0.683E-02
   0.211E+03 -.208E+03 -.313E+03   -.259E+03 0.235E+03 0.334E+03   0.316E+02 -.171E+02 -.106E+02   0.192E-01 -.832E-02 -.301E-02
   0.364E+01 0.232E+03 0.520E+03   0.422E+00 -.277E+03 -.558E+03   -.151E+01 0.296E+02 0.225E+02   0.103E-01 0.251E-02 0.622E-02
   -.534E+02 0.192E+03 0.544E+03   0.512E+02 -.234E+03 -.588E+03   0.146E+01 0.286E+02 0.260E+02   0.162E-01 -.933E-02 -.432E-02
   0.260E+03 -.132E+03 -.149E+03   -.307E+03 0.165E+03 0.151E+03   0.306E+02 -.194E+02 -.231E-01   0.262E-01 -.112E-01 -.474E-02
   -.195E+03 -.108E+03 0.333E+03   0.243E+03 0.123E+03 -.367E+03   -.311E+02 -.107E+02 0.199E+02   -.901E-02 -.724E-02 0.899E-02
   -.594E+01 -.810E+00 -.325E+02   0.647E+01 0.379E+00 0.345E+02   -.212E+00 0.229E+00 -.107E+01   -.298E-02 0.618E-03 -.382E-02
   0.247E+02 -.328E+02 -.128E+03   -.247E+02 0.341E+02 0.135E+03   0.293E+00 -.791E+00 -.415E+01   -.146E-02 0.190E-02 0.783E-03
   0.277E+01 -.820E+02 -.397E+03   0.308E+02 0.105E+03 0.439E+03   -.231E+02 -.145E+02 -.244E+02   -.152E-01 0.882E-02 -.503E-02
   0.576E+01 0.915E+02 -.100E+03   -.377E+02 -.866E+02 0.117E+03   0.194E+02 -.408E+01 -.107E+02   0.648E-02 0.581E-02 0.127E-01
   -.236E+02 0.147E+03 0.163E+03   0.282E+02 -.201E+03 -.181E+03   -.210E+01 0.345E+02 0.969E+01   0.592E-02 0.246E-01 0.189E-01
   0.210E+00 0.143E+03 0.182E+03   -.362E+01 -.196E+03 -.200E+03   0.136E+01 0.344E+02 0.977E+01   -.301E-02 0.206E-01 0.166E-01
   0.488E+02 -.799E+02 -.434E+03   -.896E+02 0.103E+03 0.467E+03   0.278E+02 -.149E+02 -.184E+02   0.151E-01 0.795E-02 0.598E-02
   0.164E+01 0.104E+03 -.142E+03   0.275E+02 -.100E+03 0.166E+03   -.178E+02 -.346E+01 -.145E+02   -.144E-01 -.891E-02 -.258E-02
   0.702E+02 0.242E+02 0.946E+02   -.781E+02 -.296E+02 -.950E+02   0.387E+01 0.280E+01 -.250E+00   -.213E-01 -.106E-01 -.798E-02
   0.194E+02 0.532E+02 0.196E+03   -.230E+02 -.556E+02 -.203E+03   0.212E+01 0.169E+01 0.406E+01   0.130E-01 -.422E-02 0.249E-02
   -.255E+03 -.139E+03 -.163E+03   0.303E+03 0.170E+03 0.166E+03   -.307E+02 -.183E+02 -.112E+01   -.200E-01 -.908E-02 -.662E-02
   0.200E+03 -.910E+02 0.258E+03   -.249E+03 0.106E+03 -.288E+03   0.322E+02 -.104E+02 0.167E+02   0.408E-02 -.947E-02 0.137E-01
   0.179E+02 0.222E+03 0.561E+03   -.119E+02 -.266E+03 -.601E+03   -.404E+01 0.297E+02 0.232E+02   -.143E-01 0.169E-02 0.957E-02
   0.786E+01 0.318E+03 0.471E+03   -.110E+02 -.373E+03 -.491E+03   0.431E+00 0.344E+02 0.109E+02   -.795E-02 0.146E-01 0.143E-01
   0.263E+03 -.390E+02 0.176E+03   -.314E+03 0.678E+02 -.187E+03   0.329E+02 -.177E+02 0.682E+01   0.735E-02 -.633E-02 0.557E-02
   -.192E+03 -.213E+03 -.384E+03   0.238E+03 0.240E+03 0.410E+03   -.303E+02 -.168E+02 -.136E+02   -.162E-01 -.108E-01 -.708E-02
   0.102E+01 -.471E+02 -.171E+02   -.894E+00 0.494E+02 0.131E+02   -.174E+00 -.120E+01 0.202E+01   0.405E-02 0.115E-01 0.824E-02
   -.243E+02 -.359E+02 -.249E+03   0.235E+02 0.394E+02 0.258E+03   0.184E+00 -.216E+01 -.560E+01   0.158E-02 0.988E-02 0.221E-02
   -.304E+03 -.878E+02 -.122E+03   0.354E+03 0.117E+03 0.124E+03   -.316E+02 -.185E+02 -.168E+01   -.838E-02 -.502E-02 0.180E-04
   0.240E+03 -.199E+03 0.399E+03   -.291E+03 0.224E+03 -.415E+03   0.311E+02 -.173E+02 0.652E+01   0.127E-01 -.200E-01 0.114E-01
   0.213E+01 0.199E+03 -.508E+03   0.501E+01 -.243E+03 0.546E+03   -.393E+01 0.292E+02 -.230E+02   0.610E-02 0.819E-02 -.147E-01
   -.483E+02 0.153E+03 -.570E+03   0.464E+02 -.194E+03 0.615E+03   0.876E+00 0.281E+02 -.267E+02   -.152E-01 0.966E-02 -.169E-01
   0.256E+03 -.173E+03 0.309E+03   -.296E+03 0.208E+03 -.331E+03   0.250E+02 -.226E+02 0.119E+02   0.630E-02 -.706E-02 0.567E-02
   -.225E+03 -.989E+02 -.246E+03   0.277E+03 0.112E+03 0.270E+03   -.325E+02 -.105E+02 -.142E+02   -.548E-02 -.575E-02 -.371E-02
   -.660E+02 0.280E+02 0.561E+02   0.716E+02 -.326E+02 -.611E+02   -.250E+01 0.216E+01 0.204E+01   0.250E-01 0.559E-02 0.411E-02
   0.603E+02 -.156E+03 -.130E+04   -.625E+02 0.181E+03 0.133E+04   0.162E+01 -.198E+02 -.292E+02   0.354E-02 0.206E-01 0.204E-01
   -.822E+02 -.188E+03 0.175E+03   0.100E+03 0.228E+03 -.222E+03   -.773E+01 -.175E+02 0.203E+02   -.102E-02 -.126E-02 -.125E-02
   0.674E+02 0.152E+03 -.873E+02   -.977E+02 -.220E+03 0.167E+03   0.202E+02 0.458E+02 -.531E+02   -.341E-03 0.216E-02 -.824E-02
   -.948E+01 -.334E+02 0.411E+02   -.256E-12 -.114E-12 -.455E-12   0.947E+01 0.334E+02 -.412E+02   0.134E-02 -.294E-01 0.919E-01

 POSITION                                       TOTAL-FORCE (eV/Angst)
     -0.01256      2.08067      5.49844        -0.010776      6.849433     -2.323905
      1.02531      3.87039      5.58279        -7.968496      0.823655     -0.032640
     -1.07091      3.83213      5.50882         7.760656      0.890736      0.844814
      4.83057      0.55548      6.49674         0.275241     -1.020945      1.395017
      2.92997      3.86934      5.32282        -0.626381      2.146774     -0.859264
      0.99616      0.50016      5.77838        -0.407414     -0.928050     -0.386562
     -3.01846      6.97834      6.22215         1.501408      5.410828      3.386196
     -1.86861      8.69839      6.44013        -5.240059     -4.833875      0.810566
     -3.93360      8.77859      6.40138         5.692484     -4.705571      1.416349
      2.02091      5.31442      6.44898        -1.460343     -1.430248      0.492125
      0.03311      8.62482      6.28602         0.192976     -0.569529     -1.446898
     -2.14131      5.31169      6.18145         1.289853     -2.109545      2.153515
      5.86871      2.09130      6.08107         0.328384      5.452537     -2.928099
      6.80726      3.70322      5.16352        -6.110880     -2.646993     -1.426250
      4.80507      3.77602      5.61181         6.369049     -4.481531     -1.083933
     10.62107      0.36324      5.92982         0.181042     -1.292118     -0.517744
      8.69175      3.64652      5.08788         1.502267      1.643957     -1.566220
      6.86072      0.54448      6.57660         0.182866     -0.514674      1.189841
      2.99592      6.88840      6.81873        -2.587553      6.529744      3.286999
      3.96778      8.68822      6.71329        -6.521343     -4.535448      3.373344
      1.89779      8.67007      6.69372         5.954970     -5.096115      2.360148
      7.63878      5.37892      5.42342         2.581667      1.838577     -0.377864
      5.85495      8.70554      6.86177         0.010395      0.354557      1.752679
      3.99994      5.34936      6.29724        -1.952887      0.287127      0.657021
     -0.01206      3.26876      5.48035         0.619843      1.326636     -1.579355
      0.97975      1.55497      5.42899        16.865246      9.961707     -8.081927
      3.89975     -0.03613      6.70418       -16.596865      9.407004     10.238485
      3.90162      3.38064      5.06906         2.560183    -15.826768    -15.648685
      1.91108      3.48872      5.03588        -0.708384    -13.060748    -17.019627
      4.85245      1.65522      6.33871       -16.682284     13.639342      2.496550
     -3.89993      9.68279      5.75287        16.628510      4.953615    -13.965570
      0.01413      0.01797      6.20880         0.321904     -0.202478      0.887627
     -2.91629      8.13567      6.42827         0.347769      0.499749      3.041182
     -2.19344      6.31762      6.64913        10.413430      7.991661     16.795508
      1.02484      4.77169      6.31853       -12.587412      0.847200      6.103373
      1.01741      8.08099      6.29551         2.579246    -19.029798     -8.138514
     -0.94878      8.09392      6.16511        -2.050316    -18.988579     -8.162656
      2.03505      6.28629      6.98990       -12.930711      8.345915     14.597771
     -1.16385      4.72861      6.23746        11.366864      0.287449      9.414397
      8.60992      4.71389      5.61845        -4.070264     -2.640479     -0.698907
      5.84084      3.13649      5.53440        -1.493469     -0.772834     -3.417301
      6.86884      1.63997      6.36499        17.148375     13.104371      1.668769
      3.88495      9.55610      6.01990       -17.360116      4.426692    -12.960503
     -1.89635      3.41796      4.89791         1.955360    -13.782632    -17.053465
      7.73755      3.11047      4.90706        -2.750437    -20.480949     -9.290278
     10.61043      1.42275      5.60765       -17.505536     11.074162     -4.144420
      7.74742     -0.05565      6.92246        15.207615      9.572185     11.977659
      5.84805     -0.04274      6.40369        -0.039566      1.058108     -1.977490
      2.93230      8.06917      6.85591        -0.650507      1.283516      4.164542
      3.98400      6.42978      6.58205        18.329281     10.261102      0.370547
      6.73032      4.84417      5.11140       -19.327686      7.275046     -9.316652
     -4.77528      8.37725      7.03833         3.221402    -15.393644     15.292807
      4.87769      8.30826      7.25722        -1.073583    -12.474911     18.066015
     -3.88845      6.65273      5.60039       -14.615735     12.835283     -9.675322
      4.90597      4.71934      6.22114        19.424940      3.018927     10.426430
      2.96244      4.84861      6.01123         3.128115     -2.417931     -2.923994
     -0.11251      5.77850      7.15321        -0.616368      5.833046      8.338450
     -0.11251      5.77850     12.17641        10.092688     22.809807    -26.517500
     -0.38216      5.16879      0.28649       -10.088660    -22.804055     26.522819
    total drift:                               -0.006268     -0.000420     -0.015975

  FREE ENERGIE OF THE ION-ELECTRON SYSTEM (eV)
  free  energy   TOTEN  =      -342.58951962 eV

  energy  without entropy=     -342.58951962  energy(sigma->0) =     -342.58951962

 total charge

[...]

 magnetization (x)

# of ion       s       p       d       tot
    1       -0.000   0.000   0.000  -0.000
    2       -0.000   0.000   0.000   0.000
    3        0.000  -0.000   0.000   0.000
    4       -0.000  -0.000   0.000  -0.000
    5       -0.000   0.000   0.000  -0.000
    6       -0.000   0.000   0.000   0.000
    7        0.000   0.000   0.000   0.000
    8        0.000   0.000   0.000   0.000
    9        0.000   0.000   0.000   0.000
   10       -0.000  -0.000   0.000  -0.000
   11        0.000   0.000   0.000   0.000
   12        0.000  -0.000   0.000   0.000
   13        0.000   0.000   0.000   0.000
   14       -0.000   0.000   0.000   0.000
   15       -0.000   0.000   0.000   0.000
   16       -0.000   0.000   0.000   0.000
   17        0.000   0.000   0.000   0.000
   18       -0.000  -0.000   0.000  -0.000
   19        0.000   0.000   0.000   0.000
   20       -0.000   0.000   0.000   0.000
   21        0.000   0.000   0.000   0.000
   22        0.000   0.000   0.000   0.000
   23       -0.000   0.000   0.000   0.000
   24       -0.000   0.000   0.000  -0.000
   25       -0.000  -0.000   0.000  -0.000
   26       -0.000  -0.000   0.000  -0.000
   27       -0.000  -0.000   0.000  -0.000
   28       -0.000   0.000   0.000  -0.000
   29       -0.000  -0.000   0.000  -0.000
   30       -0.000  -0.000   0.000  -0.000
   31       -0.000  -0.000   0.000  -0.000
   32        0.000  -0.000   0.000  -0.000
   33       -0.000  -0.000   0.000  -0.000
   34       -0.000  -0.000   0.000  -0.000
   35       -0.000   0.000   0.000  -0.000
   36       -0.000  -0.000   0.000  -0.000
   37       -0.000  -0.000   0.000  -0.000
   38       -0.000   0.000   0.000  -0.000
   39        0.000   0.000   0.000   0.000
   40        0.000  -0.000   0.000  -0.000
   41       -0.000  -0.000   0.000  -0.000
   42       -0.000  -0.000   0.000  -0.000
   43       -0.000  -0.000   0.000  -0.000
   44       -0.000  -0.000   0.000  -0.000
   45       -0.000  -0.000   0.000  -0.000
   46       -0.000  -0.000   0.000  -0.000
   47       -0.000  -0.000   0.000  -0.000
   48        0.000  -0.000   0.000   0.000
   49        0.000  -0.000   0.000  -0.000
   50       -0.000  -0.000   0.000  -0.000
   51       -0.000  -0.000   0.000  -0.000
   52       -0.000  -0.000   0.000  -0.000
   53       -0.000  -0.000   0.000  -0.000
   54       -0.000  -0.000   0.000  -0.000
   55       -0.000  -0.000   0.000  -0.000
   56       -0.000   0.000   0.000   0.000
   57        0.000   0.000  -0.000   0.000
   58        0.000   0.000   0.000   0.000
   59        0.000   0.000   0.000   0.000
tot         -0.000   0.000  -0.000  -0.000

 BZINTS: Fermi energy:  0.461115;280.000000 electrons
         Band energy:***********;  BLOECHL correction:  0.000000