 vasp.5.4.4.18Apr17-6-g9f103f2a35 (build Jan 14 2022 15:04:31) complex

 executed on             LinuxIFC date 2023.01.23  17:52:24

 INCAR:
 POTCAR:    PAW_PBE C 08Apr2002
 POTCAR:    PAW_PBE N 08Apr2002
 POTCAR:    PAW_PBE C 08Apr2002
 POTCAR:    PAW_PBE Cr_pv 02Aug2007
 POTCAR:    PAW_PBE C 08Apr2002
   VRHFIN =C: s2p2

   TITEL  = PAW_PBE C 08Apr2002
   POMASS =   12.011; ZVAL   =    4.000    mass and valenz
   ENMAX  =  400.000; ENMIN  =  300.000 eV

[...]

   TITEL  = PAW_PBE C 08Apr2002
   POMASS =   12.011; ZVAL   =    4.000    mass and valenz
   ENMAX  =  400.000; ENMIN  =  300.000 eV

   TITEL  = PAW_PBE Cr_pv 02Aug2007
   POMASS =   51.996; ZVAL   =   12.000    mass and valenz
   ENMAX  =  265.681; ENMIN  =  199.261 eV

 Optimization of the real space projectors (new method)

 maximal supplied QI-value         = 25.13
 optimisation between [QCUT,QGAM] = [ 10.56, 21.36] = [ 31.20,127.80] Ry
 Optimized for a Real-space Cutoff    1.32 Angstroem

   l    n(q)    QCUT    max X(q) W(low)/X(q) W(high)/X(q)  e(spline)
   0      8    10.556   115.676    0.17E-03    0.39E-03    0.26E-06
   0      8    10.556    87.132    0.17E-03    0.39E-03    0.26E-06
   1      8    10.556     4.429    0.24E-03    0.31E-03    0.16E-06
   1      8    10.556     2.733    0.17E-03    0.22E-03    0.19E-06
 Optimization of the real space projectors (new method)

[...]

   l    n(q)    QCUT    max X(q) W(low)/X(q) W(high)/X(q)  e(spline)
   0      8    10.556   115.676    0.17E-03    0.39E-03    0.26E-06
   0      8    10.556    87.132    0.17E-03    0.39E-03    0.26E-06
   1      8    10.556     4.429    0.24E-03    0.31E-03    0.16E-06
   1      8    10.556     2.733    0.17E-03    0.22E-03    0.19E-06
 Optimization of the real space projectors (new method)

 maximal supplied QI-value         = 16.25
 optimisation between [QCUT,QGAM] = [ 10.73, 21.45] = [ 32.22,128.87] Ry
 Optimized for a Real-space Cutoff    1.53 Angstroem

   l    n(q)    QCUT    max X(q) W(low)/X(q) W(high)/X(q)  e(spline)
   1      9    10.726     3.262    0.64E-04    0.35E-04    0.11E-06
   1      9    10.726     5.741    0.13E-03    0.48E-04    0.19E-06
   2      9    10.726    60.438    0.12E-03    0.29E-04    0.13E-06
   2      9    10.726    55.380    0.12E-03    0.29E-04    0.13E-06
   0     10    10.726    80.273    0.43E-04    0.74E-05    0.81E-07
   0     10    10.726    36.654    0.34E-04    0.61E-05    0.73E-07
  PAW_PBE C 08Apr2002                   :
  PAW_PBE N 08Apr2002                   :
  PAW_PBE C 08Apr2002                   :
  PAW_PBE Cr_pv 02Aug2007               :

 POSCAR: POSCAR-clean
  positions in direct lattice
  velocities in cartesian coordinates
 exchange correlation table for  LEXCH =        8
   RHO(1)=    0.500       N(1)  =     2000
   RHO(2)=  100.500       N(2)  =     4000

 VTST: version 3.2, (02/03/18)

 CHAIN: initializing optimizer

 OPT: Using VASP Conjugate-Gradient optimizer
 CHAIN: Read ICHAIN            0

 POSCAR: POSCAR-clean
  positions in direct lattice
  velocities in cartesian coordinates

 ion  position               nearest neighbor table
   1  0.001  0.999  0.498-  60 1.41   2 1.42  70 1.43
   2  0.056  0.111  0.498-   1 1.42  13 1.43  15 1.43
   3  0.167  0.001  0.498-  60 1.41   4 1.42  62 1.42
   4  0.223  0.113  0.498-   3 1.42  15 1.42  17 1.44
   5  0.334  0.002  0.498-   6 1.42  62 1.43  64 1.43
   6  0.390  0.113  0.498-   5 1.42  19 1.42  17 1.43
   7  0.500  1.000  0.498-   8 1.42  64 1.43  66 1.44
   8  0.556  0.111  0.498-   7 1.42  21 1.42  19 1.43
   9  0.666  0.998  0.498-  10 1.42  66 1.43  68 1.44
  10  0.722  0.109  0.498-   9 1.42  23 1.43  21 1.43
  11  0.833  0.998  0.498-  12 1.42  70 1.43  68 1.44
  12  0.888  0.109  0.498-  11 1.42  13 1.42  23 1.43
  13  0.999  0.165  0.498-  14 1.42  12 1.42   2 1.43
  14  0.054  0.276  0.498-  13 1.42  27 1.42  25 1.42
  15  0.168  0.168  0.498-  16 1.42   4 1.42   2 1.43
  16  0.223  0.280  0.500-  15 1.42  27 1.43  29 1.44
  17  0.335  0.170  0.499-  18 1.42   6 1.43   4 1.44
  18  0.390  0.281  0.503-  17 1.42  29 1.44  31 1.44
  19  0.501  0.168  0.498-  20 1.42   6 1.42   8 1.43
  20  0.557  0.280  0.500-  19 1.42  33 1.42  31 1.44
  21  0.667  0.165  0.498-  22 1.42   8 1.42  10 1.43
  22  0.723  0.277  0.498-  21 1.42  35 1.42  33 1.43
  23  0.833  0.165  0.498-  24 1.42  10 1.43  12 1.43
  24  0.888  0.276  0.498-  23 1.42  25 1.42  35 1.42
  25  0.999  0.332  0.498-  24 1.42  14 1.42  26 1.43
  26  0.055  0.444  0.499-  39 1.41  37 1.42  25 1.43
  27  0.165  0.333  0.500-  28 1.42  14 1.42  16 1.43
  28  0.219  0.444  0.502-  41 1.41  27 1.42  39 1.42
  29  0.335  0.338  0.503-  30 1.42  18 1.44  16 1.44
  30  0.388  0.448  0.509-  41 1.41  29 1.42  71 2.00
  31  0.503  0.338  0.503-  32 1.42  18 1.44  20 1.44
  32  0.561  0.449  0.510-  43 1.41  31 1.42  71 2.00
  33  0.668  0.333  0.500-  34 1.42  20 1.42  22 1.43
  34  0.725  0.444  0.501-  43 1.41  33 1.42  45 1.42
  35  0.833  0.332  0.498-  22 1.42  24 1.42  36 1.43
  36  0.890  0.444  0.498-  45 1.41  37 1.42  35 1.43
  37  0.000  0.500  0.498-  36 1.42  26 1.42  38 1.42
  38  0.056  0.612  0.498-  49 1.42  47 1.42  37 1.42
  39  0.165  0.500  0.500-  26 1.41  28 1.42  40 1.42
  40  0.220  0.611  0.500-  49 1.41  51 1.42  39 1.42
  41  0.329  0.499  0.505-  30 1.41  28 1.41  42 1.44
  42  0.385  0.612  0.505-  53 1.41  51 1.41  41 1.44
  43  0.671  0.499  0.505-  32 1.41  34 1.41  44 1.44
  44  0.727  0.612  0.505-  55 1.40  57 1.41  43 1.44
  45  0.835  0.500  0.500-  36 1.41  34 1.42  46 1.42
  46  0.891  0.612  0.500-  47 1.41  57 1.42  45 1.42
  47  0.001  0.668  0.498-  46 1.41  38 1.42  48 1.43
  48  0.057  0.780  0.498-  59 1.42  61 1.42  47 1.43
  49  0.166  0.667  0.499-  40 1.41  38 1.42  50 1.43
  50  0.222  0.779  0.498-  61 1.42  63 1.42  49 1.43
  51  0.331  0.667  0.502-  42 1.41  52 1.42  40 1.42
  52  0.388  0.778  0.500-  51 1.42  65 1.42  63 1.43
  53  0.495  0.663  0.509-  42 1.41  54 1.42  71 2.00
  54  0.553  0.773  0.503-  53 1.42  67 1.44  65 1.44
  55  0.668  0.663  0.510-  44 1.40  56 1.42  71 2.00
  56  0.721  0.773  0.503-  55 1.42  69 1.44  67 1.44
  57  0.837  0.668  0.501-  44 1.41  46 1.42  58 1.42
  58  0.891  0.779  0.500-  69 1.42  57 1.42  59 1.42
  59  0.002  0.835  0.498-  60 1.41  48 1.42  58 1.42
  60  0.057  0.946  0.498-  59 1.41   1 1.41   3 1.41
  61  0.168  0.835  0.498-  50 1.42  62 1.42  48 1.42
  62  0.222  0.946  0.498-  61 1.42   3 1.42   5 1.43
  63  0.333  0.835  0.498-  64 1.42  50 1.42  52 1.43
  64  0.389  0.946  0.498-  63 1.42   7 1.43   5 1.43
  65  0.499  0.831  0.500-  66 1.42  52 1.42  54 1.44
  66  0.555  0.943  0.498-  65 1.42   9 1.43   7 1.44
  67  0.665  0.830  0.503-  68 1.42  54 1.44  56 1.44
  68  0.721  0.941  0.499-  67 1.42   9 1.44  11 1.44
  69  0.833  0.831  0.500-  58 1.42  70 1.42  56 1.44
  70  0.889  0.943  0.498-  69 1.42  11 1.43   1 1.43
  71  0.528  0.556  0.555-  53 2.00  32 2.00  30 2.00  55 2.00

IMPORTANT INFORMATION: All symmetrisations will be switched off!
NOSYMM: (Re-)initialisation of all symmetry stuff for point group C_1.

 KPOINTS: K-Points

Automatic generation of k-mesh.
Space group operators:
 irot       det(A)        alpha          n_x          n_y          n_z        tau_x        tau_y        tau_z
    1     1.000000     0.000000     1.000000     0.000000     0.000000     0.000000     0.000000     0.000000

 Subroutine IBZKPT returns following result:

 Found      4 irreducible k-points:

 Following reciprocal coordinates:
            Coordinates               Weight
  0.000000  0.000000  0.000000      1.000000
  0.500000 -0.000000  0.000000      1.000000
 -0.000000  0.500000  0.000000      1.000000
  0.500000  0.500000  0.000000      1.000000

 Following cartesian coordinates:
            Coordinates               Weight
  0.000000  0.000000  0.000000      1.000000
  0.033654  0.019598  0.000000      1.000000
  0.000004  0.039197  0.000000      1.000000
  0.033658  0.058795  0.000000      1.000000

 SYSTEM =  unknown system
 POSCAR =  POSCAR-clean

 Startparameter for this run:
   NWRITE =      2    write-flag & timer
   PREC   = accura    normal or accurate (medium, high low for compatibility)
   ISTART =      0    job   : 0-new  1-cont  2-samecut
   ICHARG =      2    charge: 1-file 2-atom 10-const
   ISPIN  =      2    spin polarized calculation?
   LNONCOLLINEAR =      F non collinear calculations
   LSORBIT =      F    spin-orbit coupling
   INIWAV =      1    electr: 0-lowe 1-rand  2-diag
   LASPH  =      F    aspherical Exc in radial PAW
   METAGGA=      F    non-selfconsistent MetaGGA calc.

 Electronic Relaxation 1
   ENCUT  =  440.0 eV  32.34 Ry    5.69 a.u.  25.41 25.25 25.66*2*pi/ulx,y,z
   ENINI  =  440.0     initial cutoff
   ENAUG  =  644.9 eV  augmentation charge cutoff
   NELM   =     50;   NELMIN=  2; NELMDL= -5     # of ELM steps
   EDIFF  = 0.1E-04   stopping-criterion for ELM
   LREAL  =      T    real-space projection
   NLSPLINE    = F    spline interpolate recip. space projectors
   LCOMPAT=      F    compatible to vasp.4.4
   GGA_COMPAT  = T    GGA compatible to vasp.4.4-vasp.4.6
   LMAXPAW     = -100 max onsite density
   LMAXMIX     =    2 max onsite mixed and CHGCAR
   VOSKOWN=      0    Vosko Wilk Nusair interpolation
   ROPT   =   -0.00025  -0.00025  -0.00025  -0.00025
 Ionic relaxation
   EDIFFG = -.5E-01   stopping-criterion for IOM
   NSW    =    400    number of steps for IOM
   NBLOCK =      1;   KBLOCK =    400    inner block; outer block
   IBRION =      2    ionic relax: 0-MD 1-quasi-New 2-CG
   NFREE  =      1    steps in history (QN), initial steepest desc. (CG)
   ISIF   =      2    stress and relaxation
   IWAVPR =     11    prediction:  0-non 1-charg 2-wave 3-comb
   ISYM   =      0    0-nonsym 1-usesym 2-fastsym
   LCORR  =      T    Harris-Foulkes like correction to forces

   POTIM  = 0.3000    time-step for ionic-motion
   TEIN   =    0.0    initial temperature
   TEBEG  =    0.0;   TEEND  =   0.0 temperature during run
   SMASS  =  -3.00    Nose mass-parameter (am)
   estimated Nose-frequenzy (Omega)   =  0.10E-29 period in steps =****** mass=  -0.504E-26a.u.
   SCALEE = 1.0000    scale energy and forces
   NPACO  =    256;   APACO  = 16.0  distance and # of slots for P.C.
   PSTRESS=    0.0 pullay stress

  Mass of Ions in am
   POMASS =  12.01 14.00 12.01 52.00
  Ionic Valenz
   ZVAL   =   4.00  5.00  4.00 12.00
  Atomic Wigner-Seitz radii
  virtual crystal weights
   VCA    =   1.00  1.00  1.00  1.00
   NELECT =     293.0000    total number of electrons
   NUPDOWN=      -1.0000    fix difference up-down

 DOS related values:
   EMIN   =  10.00;   EMAX   =-10.00  energy-range for DOS
   EFERMI =   0.00
   ISMEAR =     0;   SIGMA  =   0.10  broadening in eV -4-tet -1-fermi 0-gaus

 Electronic relaxation 2 (details)
   IALGO  =     68    algorithm
   LDIAG  =      T    sub-space diagonalisation (order eigenvalues)
   LSUBROT=      F    optimize rotation matrix (better conditioning)
   TURBO    =      0    0=normal 1=particle mesh
   IRESTART =      0    0=no restart 2=restart with 2 vectors
   NREBOOT  =      0    no. of reboots
   NMIN     =      0    reboot dimension
[...]
      direct lattice vectors                 reciprocal lattice vectors
    14.857851351 -0.001371368  0.000000000     0.067308101  0.039196736  0.000000000
    -7.428925675 12.756850017  0.000000000     0.000007236  0.078393471  0.000000000
     0.000000000  0.000000000 15.000000000     0.000000000  0.000000000  0.066666667

  length of vectors
    14.857851414 14.762322278 15.000000000     0.077889438  0.078393471  0.066666667

 FORCES acting on ions
    electron-ion (+dipol)            ewald-force                    non-local-force                 convergence-correction
   0.249E+02 -.131E+02 0.773E+01   -.304E+02 0.161E+02 -.776E+01   0.551E+01 -.304E+01 0.363E-01   -.792E-05 0.157E-04 -.321E-04
   0.504E+01 -.866E+01 0.770E+01   -.529E+01 0.101E+02 -.773E+01   0.239E+00 -.146E+01 0.296E-01   0.143E-04 -.953E-05 -.331E-04
   -.229E+02 -.128E+02 0.710E+01   0.283E+02 0.161E+02 -.710E+01   -.541E+01 -.324E+01 0.386E-02   0.604E-05 0.179E-04 -.108E-04
   -.876E+01 -.810E+01 0.739E+01   0.913E+01 0.958E+01 -.738E+01   -.374E+00 -.150E+01 -.773E-02   0.117E-04 0.301E-04 -.642E-04
   -.382E+01 0.817E+00 0.671E+01   0.440E+01 -.397E+00 -.674E+01   -.588E+00 -.418E+00 0.235E-01   0.985E-05 0.201E-04 -.112E-04
   -.170E+01 -.118E+01 0.700E+01   0.193E+01 0.143E+01 -.701E+01   -.228E+00 -.258E+00 0.546E-02   -.111E-04 0.210E-04 -.653E-04
   -.268E+01 0.458E+00 0.763E+01   0.285E+01 -.452E+00 -.766E+01   -.189E+00 0.816E-02 0.277E-01   0.194E-04 0.108E-04 -.300E-04
   0.104E+01 -.275E+00 0.781E+01   -.103E+01 0.331E+00 -.784E+01   0.788E-02 -.698E-01 0.256E-01   -.745E-05 -.164E-04 -.307E-04
   -.128E+01 -.296E+00 0.754E+01   0.123E+01 0.232E+00 -.755E+01   0.629E-01 0.700E-01 0.122E-01   -.307E-06 -.346E-04 -.596E-04
   0.111E+01 -.565E+00 0.738E+01   -.120E+01 0.459E+00 -.741E+01   0.800E-01 0.977E-01 0.262E-01   -.107E-04 -.242E-04 -.813E-05
   0.574E+01 -.149E+00 0.706E+01   -.639E+01 0.337E+00 -.707E+01   0.648E+00 -.181E+00 0.120E-01   -.159E-04 -.393E-04 -.620E-04
   0.398E+01 -.228E+01 0.660E+01   -.426E+01 0.231E+01 -.662E+01   0.275E+00 -.366E-01 0.159E-01   -.134E-05 -.144E-04 -.107E-04
   0.273E+01 0.263E+00 0.685E+01   -.331E+01 0.327E-01 -.687E+01   0.600E+00 -.292E+00 0.833E-02   -.166E-05 0.102E-04 -.201E-04
   0.334E+01 0.217E+01 0.647E+01   -.341E+01 -.199E+01 -.650E+01   0.558E-01 -.178E+00 0.213E-01   0.122E-04 0.146E-04 -.447E-04
   0.189E+01 -.365E+01 0.869E+01   -.183E+01 0.463E+01 -.871E+01   -.742E-01 -.101E+01 0.234E-01   0.208E-04 0.403E-04 -.826E-04
   -.160E+01 0.309E+01 0.102E+02   0.214E+01 -.234E+01 -.103E+02   -.544E+00 -.762E+00 0.648E-01   0.531E-04 0.113E-04 -.175E-03
   -.977E+00 0.304E+01 0.713E+01   0.154E+01 -.229E+01 -.715E+01   -.579E+00 -.772E+00 0.161E-01   0.218E-05 0.396E-04 -.121E-03
   -.162E+01 0.586E+01 0.574E+01   0.171E+01 -.497E+01 -.533E+01   -.899E-01 -.905E+00 -.424E+00   -.193E-05 0.120E-03 -.249E-03
   -.310E+01 0.425E+01 0.824E+01   0.320E+01 -.403E+01 -.826E+01   -.101E+00 -.250E+00 0.157E-01   -.181E-04 0.393E-04 -.824E-04
   0.999E+00 0.658E+01 0.981E+01   -.145E+01 -.628E+01 -.990E+01   0.467E+00 -.302E+00 0.824E-01   -.632E-04 0.197E-05 -.175E-03
   -.171E+01 0.404E+01 0.782E+01   0.172E+01 -.406E+01 -.783E+01   -.173E-01 0.210E-01 0.946E-02   -.372E-05 -.558E-05 -.167E-04
   -.138E+01 0.322E+01 0.801E+01   0.134E+01 -.327E+01 -.804E+01   0.497E-01 0.498E-01 0.329E-01   -.175E-04 0.154E-04 -.411E-04
   0.805E+00 0.186E+01 0.597E+01   -.981E+00 -.184E+01 -.596E+01   0.186E+00 -.334E-01 -.158E-01   0.420E-05 0.278E-06 0.768E-05
   0.938E+00 0.154E+01 0.598E+01   -.992E+00 -.151E+01 -.601E+01   0.435E-01 -.970E-02 0.208E-01   0.335E-05 -.341E-05 0.115E-04
   0.174E+01 0.200E+01 0.521E+01   -.177E+01 -.196E+01 -.520E+01   0.525E-01 -.405E-01 -.193E-01   0.182E-04 0.313E-04 -.136E-04
   0.422E+01 0.470E+01 0.555E+01   -.417E+01 -.469E+01 -.558E+01   -.673E-01 0.484E-03 0.281E-01   0.224E-04 -.983E-05 -.353E-04
   0.450E+01 0.777E+01 0.682E+01   -.437E+01 -.765E+01 -.679E+01   -.135E+00 -.124E+00 -.325E-01   0.180E-04 0.438E-04 -.134E-03
   0.117E+02 0.560E+01 0.569E+01   -.115E+02 -.538E+01 -.582E+01   -.227E+00 -.220E+00 0.120E+00   0.293E-04 0.692E-04 -.175E-03
   -.160E+01 0.159E+02 0.124E+02   0.195E+01 -.147E+02 -.126E+02   -.372E+00 -.116E+01 0.219E+00   0.106E-03 0.327E-04 -.287E-03
   -.780E+01 0.335E+02 0.256E+02   0.141E+02 -.298E+02 -.247E+02   -.633E+01 -.370E+01 -.891E+00   0.149E-03 0.139E-03 -.329E-03
   0.119E+01 0.169E+02 0.117E+02   -.136E+01 -.159E+02 -.119E+02   0.183E+00 -.104E+01 0.241E+00   -.104E-03 0.323E-04 -.287E-03
   0.749E+01 0.349E+02 0.242E+02   -.137E+02 -.313E+02 -.233E+02   0.624E+01 -.357E+01 -.889E+00   -.153E-03 0.142E-03 -.322E-03
   -.436E+01 0.101E+02 0.780E+01   0.417E+01 -.101E+02 -.777E+01   0.193E+00 0.601E-01 -.321E-01   -.873E-05 0.438E-04 -.132E-03
   -.114E+02 0.738E+01 0.705E+01   0.111E+02 -.733E+01 -.716E+01   0.282E+00 -.424E-01 0.109E+00   -.213E-04 0.586E-04 -.172E-03
   -.199E+01 0.294E+01 0.661E+01   0.190E+01 -.299E+01 -.659E+01   0.906E-01 0.556E-01 -.188E-01   -.152E-04 0.301E-04 -.111E-04
   -.373E+01 0.529E+01 0.753E+01   0.369E+01 -.536E+01 -.757E+01   0.445E-01 0.729E-01 0.417E-01   -.263E-04 -.160E-04 -.325E-04
   -.768E+00 0.957E+00 0.640E+01   0.786E+00 -.104E+01 -.642E+01   -.120E-01 0.982E-01 0.181E-01   0.121E-04 0.453E-06 -.179E-04
   0.185E-01 0.152E+01 0.636E+01   0.129E+00 -.171E+01 -.638E+01   -.147E+00 0.177E+00 0.120E-01   0.576E-05 -.926E-06 -.170E-04
   0.460E+01 0.229E+00 0.371E+01   -.455E+01 -.237E+00 -.368E+01   -.489E-01 0.118E-01 -.386E-01   0.741E-04 0.259E-04 -.103E-03
   0.432E+01 -.127E+00 0.386E+01   -.419E+01 0.678E-01 -.383E+01   -.145E+00 0.553E-01 -.367E-01   0.720E-04 -.198E-04 -.103E-03
   0.249E+02 0.796E+01 0.143E+02   -.240E+02 -.840E+01 -.148E+02   -.877E+00 0.415E+00 0.548E+00   0.594E-04 0.183E-03 -.278E-03
   0.249E+02 -.864E+01 0.142E+02   -.240E+02 0.913E+01 -.148E+02   -.874E+00 -.467E+00 0.556E+00   0.599E-04 -.175E-03 -.275E-03
   -.244E+02 0.865E+01 0.132E+02   0.235E+02 -.922E+01 -.137E+02   0.891E+00 0.558E+00 0.529E+00   -.755E-04 0.185E-03 -.275E-03
   -.250E+02 -.601E+01 0.135E+02   0.239E+02 0.630E+01 -.140E+02   0.106E+01 -.279E+00 0.502E+00   -.768E-04 -.186E-03 -.273E-03
   -.508E+01 0.135E+01 0.653E+01   0.501E+01 -.155E+01 -.649E+01   0.879E-01 0.207E+00 -.268E-01   -.710E-04 0.108E-04 -.990E-04
   -.510E+01 0.404E+01 0.663E+01   0.504E+01 -.437E+01 -.660E+01   0.694E-01 0.314E+00 -.264E-01   -.661E-04 -.108E-04 -.989E-04
   -.612E+01 -.154E+01 0.754E+01   0.611E+01 0.891E+00 -.758E+01   0.247E-01 0.656E+00 0.451E-01   -.271E-04 0.632E-05 -.316E-04
   -.625E+01 0.709E+01 0.672E+01   0.723E+01 -.804E+01 -.671E+01   -.993E+00 0.941E+00 -.894E-02   -.193E-04 -.258E-04 -.112E-04
   0.169E+01 -.312E+01 0.547E+01   -.155E+01 0.296E+01 -.550E+01   -.144E+00 0.159E+00 0.246E-01   0.312E-04 0.110E-04 -.340E-04
   -.183E+01 -.902E+00 0.521E+01   0.232E+01 0.675E+00 -.519E+01   -.480E+00 0.222E+00 -.254E-01   0.279E-04 -.320E-04 -.128E-04
   0.112E+02 -.631E+01 0.598E+01   -.109E+02 0.620E+01 -.610E+01   -.292E+00 0.113E+00 0.115E+00   0.314E-04 -.573E-04 -.173E-03
   0.376E+01 -.960E+01 0.687E+01   -.344E+01 0.963E+01 -.683E+01   -.336E+00 -.193E-01 -.374E-01   0.177E-04 -.486E-04 -.129E-03
   -.710E+01 -.344E+02 0.255E+02   0.133E+02 0.308E+02 -.246E+02   -.628E+01 0.363E+01 -.905E+00   0.142E-03 -.131E-03 -.317E-03
   -.308E+00 -.175E+02 0.124E+02   0.480E+00 0.165E+02 -.127E+02   -.183E+00 0.100E+01 0.242E+00   0.901E-04 -.238E-04 -.277E-03
   0.967E+01 -.334E+02 0.227E+02   -.161E+02 0.296E+02 -.217E+02   0.647E+01 0.383E+01 -.979E+00   -.161E-03 -.146E-03 -.321E-03
   0.489E+01 -.155E+02 0.117E+02   -.558E+01 0.142E+02 -.119E+02   0.711E+00 0.124E+01 0.198E+00   -.116E-03 -.200E-04 -.281E-03
   -.921E+01 -.356E+01 0.756E+01   0.892E+01 0.280E+01 -.769E+01   0.294E+00 0.777E+00 0.126E+00   -.225E-04 -.590E-04 -.170E-03
   -.239E+00 0.460E-01 0.755E+01   -.101E+01 -.982E+00 -.747E+01   0.126E+01 0.947E+00 -.752E-01   -.927E-05 -.474E-04 -.129E-03
   -.154E+01 0.237E+02 0.746E+01   0.150E+01 -.300E+02 -.744E+01   0.480E-01 0.622E+01 -.184E-01   -.125E-04 -.229E-04 -.406E-04
   -.202E+01 -.485E+01 0.947E+01   0.219E+01 0.512E+01 -.958E+01   -.179E+00 -.274E+00 0.114E+00   -.688E-05 -.831E-05 -.195E-04
   -.702E+01 0.203E+01 0.613E+01   0.775E+01 -.241E+01 -.615E+01   -.734E+00 0.378E+00 0.207E-01   0.162E-05 0.110E-04 0.106E-04
   -.105E+02 -.384E+01 0.606E+01   0.119E+02 0.348E+01 -.605E+01   -.139E+01 0.351E+00 -.145E-01   0.137E-05 -.548E-05 0.622E-05
   -.615E+00 -.217E+01 0.637E+01   0.859E+00 0.220E+01 -.639E+01   -.247E+00 -.374E-01 0.201E-01   0.188E-04 -.215E-04 -.416E-04
   -.159E+00 -.496E+01 0.682E+01   0.378E+00 0.498E+01 -.683E+01   -.204E+00 -.293E-01 0.395E-02   0.309E-05 -.282E-05 -.181E-04
   -.195E+01 -.657E+01 0.101E+02   0.244E+01 0.635E+01 -.102E+02   -.512E+00 0.235E+00 0.974E-01   0.673E-04 -.174E-04 -.166E-03
   0.219E+01 -.538E+01 0.860E+01   -.213E+01 0.524E+01 -.862E+01   -.742E-01 0.179E+00 0.182E-01   0.274E-04 -.337E-04 -.766E-04
   0.214E+01 -.618E+01 0.586E+01   -.232E+01 0.551E+01 -.547E+01   0.188E+00 0.690E+00 -.403E+00   0.550E-05 -.112E-03 -.243E-03
   0.191E+01 -.727E+01 0.731E+01   -.215E+01 0.686E+01 -.734E+01   0.235E+00 0.443E+00 0.242E-01   0.236E-05 -.504E-04 -.116E-03
   0.852E+01 -.357E+01 0.987E+01   -.975E+01 0.288E+01 -.996E+01   0.127E+01 0.706E+00 0.808E-01   -.742E-04 -.227E-05 -.170E-03
   0.861E+01 -.556E+01 0.842E+01   -.101E+02 0.500E+01 -.844E+01   0.146E+01 0.587E+00 0.107E-01   -.391E-04 -.436E-04 -.795E-04
   0.101E+01 0.496E+00 -.629E+03   -.957E+00 -.479E+00 0.611E+03   -.488E-01 -.173E-01 0.180E+02   0.265E-04 0.484E-05 -.103E-02
   0.159E+00 0.143E+00 -.176E+02   -.810E-14 -.567E-12 -.114E-12   -.159E+00 -.145E+00 0.176E+02   0.959E-05 -.859E-05 -.875E-02

 POSITION                                       TOTAL-FORCE (eV/Angst)
     -7.41552     12.74868      7.46509         0.011081      0.014543      0.001690
      0.01133      1.41208      7.46587        -0.002664     -0.023700      0.000191
      2.46859      0.01881      7.46396        -0.002914      0.007242      0.004067
      2.46971      1.43655      7.47426        -0.001084     -0.019231      0.006174
      4.94259      0.02613      7.46585        -0.008559      0.003694     -0.003720
      4.95048      1.44482      7.47572         0.004622     -0.010554     -0.000694
     -0.00053     12.75386      7.46598        -0.011622      0.015603      0.000721
      7.42991      1.41942      7.46490         0.012052     -0.015982     -0.001110
      2.48216     12.72741      7.47386         0.009710      0.005603      0.002400
      9.91101      1.39153      7.46305        -0.008995     -0.010238     -0.000454
      4.96317     12.72875      7.47533        -0.001138      0.005389     -0.002037
     12.38438      1.39065      7.46596        -0.001665     -0.009840     -0.005251
     13.61821      2.10159      7.46716         0.016035      0.004781     -0.003878
     -1.24475      3.52603      7.47726        -0.011639      0.009361     -0.000933
      1.23838      2.14702      7.47570        -0.011293     -0.038473      0.001185
      1.23709      3.56621      7.50083        -0.011058     -0.016010     -0.003293
      3.71333      2.16305      7.49138        -0.010128     -0.023928     -0.002358
      3.71391      3.58479      7.53785         0.000517     -0.007889     -0.012697
      6.19236      2.14361      7.47638        -0.002245     -0.033588     -0.002805
      6.19483      3.56721      7.50054         0.015092     -0.004454     -0.005657
      8.67524      2.11026      7.46281        -0.008467     -0.000956      0.001034
      8.67984      3.52952      7.47040         0.005498     -0.002483      0.004318
     11.14636      2.10201      7.46424         0.010542     -0.008439     -0.003346
     11.14620      3.52307      7.46637        -0.010012      0.016485     -0.007283
     12.37781      4.23480      7.47471         0.022184     -0.001662     -0.005076
     -2.48738      5.66240      7.48161        -0.015409      0.004552     -0.003570
     -0.01621      4.24523      7.50035        -0.009558     -0.010944      0.000116
     -0.04046      5.66143      7.52608        -0.009569     -0.000117     -0.009229
      2.47383      4.30875      7.55069        -0.007628      0.002643      0.020508
      2.42828      5.72100      7.64151        -0.019892     -0.029264      0.022731
      4.95820      4.30803      7.55204        -0.000269      0.008172      0.010398
      5.00610      5.72271      7.64461         0.012351     -0.011460     -0.000509
      7.44699      4.24638      7.49502        -0.003080     -0.005563      0.002598
      7.47200      5.66302      7.51936         0.002527     -0.003352     -0.003884
      9.91325      4.23728      7.46865        -0.001035      0.005794     -0.000602
      9.91835      5.66228      7.47367         0.003964     -0.000358      0.002518
     -3.71451      6.37924      7.47388         0.006624      0.011837     -0.005438
     -3.71602      7.80320      7.47396         0.000978     -0.008807     -0.004964
     -1.26851      6.37588      7.50528        -0.005946      0.002253     -0.002858
     -1.26894      7.79867      7.50493        -0.025553     -0.001920     -0.002799
      1.17968      6.36845      7.57758         0.012646     -0.032130      0.010031
      1.17911      7.80405      7.57763         0.010741      0.026948      0.007892
      6.25356      6.37100      7.57827        -0.014596     -0.022222      0.001661
      6.25613      7.80974      7.57776        -0.012870      0.020392      0.008240
      8.69884      6.37667      7.49378         0.015406      0.011326      0.005307
      8.69915      7.80095      7.49339         0.017192     -0.010632      0.002536
     -4.94498      8.52029      7.47360         0.018965      0.004761      0.001842
     -4.94873      9.94964      7.46846        -0.020238      0.000843     -0.000298
     -2.48909      8.51249      7.48167        -0.005188     -0.005115     -0.003666
     -2.48329      9.93797      7.47467         0.009539     -0.003329     -0.005544
     -0.04030      8.51181      7.52547        -0.005996      0.000742     -0.006291
     -0.01501      9.92863      7.50025        -0.010027      0.016646      0.000119
      2.42839      8.45083      7.64208        -0.012959      0.017023      0.014176
      2.47532      9.86418      7.55055         0.002192     -0.008365      0.017086
      5.00930      8.45085      7.64742         0.013881      0.024524      0.023447
      4.96280      9.86572      7.55204         0.009926     -0.015271      0.018018
      7.47785      8.51819      7.51785         0.001799      0.010774     -0.005442
      7.45012      9.93924      7.49508         0.013551      0.023115      0.002063
     -6.17841     10.65802      7.47139         0.006957     -0.005096      0.007505
     -6.18299     12.06327      7.46362        -0.009295     -0.000844      0.004967
     -3.71087     10.64903      7.46610        -0.003819     -0.000907     -0.004996
     -3.72471     12.06760      7.46421        -0.007574      0.002353     -0.003458
     -1.24808     10.64600      7.47742        -0.002824      0.001171      0.000647
     -1.24809     12.06344      7.46729         0.016516     -0.010024     -0.003860
      1.23720     10.60657      7.50098        -0.016784      0.011211     -0.003447
      1.23943     12.02922      7.47581        -0.008020      0.033735     -0.000788
      3.71811     10.58519      7.53753         0.001474      0.009062     -0.012850
      3.72267     12.00276      7.49099        -0.004431      0.031052     -0.006378
      6.19395     10.60389      7.50038         0.029477      0.017527     -0.008194
      6.20726     12.02705      7.47581         0.019402      0.031734     -0.005856
      3.71588      7.08656      8.32373         0.002603      0.000259     -0.040671
    total drift:                               -0.000109     -0.002659      0.001325

  FREE ENERGIE OF THE ION-ELECTRON SYSTEM (eV)
  free  energy   TOTEN  =      -653.53517554 eV

  energy  without entropy=     -653.50900323  energy(sigma->0) =     -653.52208939

 d Force = 0.9450806E-03[ 0.383E-03, 0.151E-02]  d Energy = 0.9822357E-03-0.372E-04
 d Force =-0.1177918E+01[-0.118E+01,-0.118E+01]  d Ewald  =-0.1177918E+01-0.975E-07

 stress matrix after NEB project (eV)
     -1.69359      0.05222      0.00058
      0.05222     -1.86866      0.00170
      0.00058      0.00170     -3.51999
  FORCES: max atom, RMS     0.042057    0.020970
  FORCE total and by dimension    0.176694    0.040671
  Stress total and by dimension    4.330812    3.519992

 reached required accuracy - stopping structural energy minimisation