 vasp.5.4.4.18Apr17-6-g9f103f2a35 (build Jan 14 2022 15:04:31) complex

 executed on             LinuxIFC date 2023.04.05  11:31:22

 INCAR:
 POTCAR:    PAW_PBE C 08Apr2002
 POTCAR:    PAW_PBE N 08Apr2002
 POTCAR:    PAW_PBE Ge_d 03Jul2007
 POTCAR:    PAW_PBE C 08Apr2002
   VRHFIN =C: s2p2

   TITEL  = PAW_PBE C 08Apr2002
   POMASS =   12.011; ZVAL   =    4.000    mass and valenz
   ENMAX  =  400.000; ENMIN  =  300.000 eV

   TITEL  = PAW_PBE N 08Apr2002
   POMASS =   14.001; ZVAL   =    5.000    mass and valenz
   ENMAX  =  400.000; ENMIN  =  300.000 eV

   TITEL  = PAW_PBE Ge_d 03Jul2007
   POMASS =   72.610; ZVAL   =   14.000    mass and valenz
   ENMAX  =  310.294; ENMIN  =  232.720 eV

  PAW_PBE C 08Apr2002                   :
  PAW_PBE N 08Apr2002                   :
  PAW_PBE Ge_d 03Jul2007                :

 POSCAR: POSCAR-c3n4
  positions in cartesian coordinates
 exchange correlation table for  LEXCH =        8
   RHO(1)=    0.500       N(1)  =     2000
   RHO(2)=  100.500       N(2)  =     4000

 VTST: version 3.2, (02/03/18)

 CHAIN: initializing optimizer

 OPT: Using VASP Dynamics algorithm
 CHAIN: Read ICHAIN            0

 POSCAR: POSCAR-c3n4
  positions in cartesian coordinates

 ion  position               nearest neighbor table
   1  0.106  0.214  0.426-  26 1.58  46 1.58  25 1.67
   2  0.288  0.399  0.433-  29 1.56  35 1.63  25 1.69
   3  0.104  0.392  0.427-  44 1.56  39 1.63  25 1.69
   4  0.447  0.064  0.506-  30 1.56  27 1.58  48 1.66
   5  0.453  0.401  0.413-  28 1.57  29 1.58  56 1.68
   6  0.112  0.053  0.449-  26 1.56  31 1.57  32 1.65
   7  0.096  0.712  0.484-  54 1.57  34 1.60  33 1.66
   8  0.284  0.890  0.501-  27 1.58  37 1.59  33 1.67
   9  0.109  0.895  0.498-  31 1.56  52 1.59  33 1.69
  10  0.448  0.548  0.502-  38 1.56  56 1.60  35 1.60
  11  0.445  0.885  0.489-  37 1.58  36 1.58  48 1.63
  12  0.087  0.542  0.481-  34 1.56  40 1.59  39 1.60
  13  0.616  0.223  0.473-  42 1.59  30 1.60  41 1.66
  14  0.780  0.390  0.400-  45 1.59  51 1.61  41 1.66
  15  0.610  0.394  0.435-  28 1.58  55 1.58  41 1.71
  16  0.940  0.052  0.461-  46 1.56  43 1.57  32 1.65
  17  0.941  0.387  0.394-  45 1.56  44 1.58  40 1.68
  18  0.623  0.066  0.512-  42 1.57  47 1.58  48 1.66
  19  0.613  0.711  0.531-  50 1.57  38 1.61  49 1.66
  20  0.790  0.897  0.523-  43 1.56  53 1.58  49 1.71
  21  0.609  0.892  0.521-  47 1.58  36 1.59  49 1.70
  22  0.938  0.563  0.421-  51 1.54  54 1.59  40 1.68
  23  0.954  0.902  0.535-  52 1.58  53 1.58  32 1.65
  24  0.621  0.555  0.490-  55 1.55  50 1.57  56 1.67
  25  0.167  0.335  0.425-   1 1.67   3 1.69   2 1.69
  26  0.165  0.161  0.421-   6 1.56   1 1.58
  27  0.336  0.002  0.522-   8 1.58   4 1.58
  28  0.512  0.352  0.392-   5 1.57  15 1.58
  29  0.345  0.361  0.390-   2 1.56   5 1.58
  30  0.506  0.177  0.493-   4 1.56  13 1.60
  31  0.159  0.988  0.447-   9 1.56   6 1.57
  32  0.002  0.002  0.483-  16 1.65  23 1.65   6 1.65
  33  0.165  0.831  0.500-   7 1.66   8 1.67   9 1.69
  34  0.134  0.645  0.518-  12 1.56   7 1.60
  35  0.334  0.491  0.492-  10 1.60   2 1.63
  36  0.503  0.831  0.490-  11 1.58  21 1.59
  37  0.333  0.829  0.479-  11 1.58   8 1.59
  38  0.499  0.648  0.545-  10 1.56  19 1.61
  39  0.142  0.484  0.485-  12 1.60   3 1.63
  40  0.988  0.496  0.436-  12 1.59  22 1.68  17 1.68
  41  0.667  0.330  0.429-  13 1.66  14 1.66  15 1.71
  42  0.680  0.178  0.495-  18 1.57  13 1.59
  43  0.827  0.986  0.468-  20 1.56  16 1.57
  44  0.011  0.348  0.379-   3 1.56  17 1.58
  45  0.830  0.330  0.380-  17 1.56  14 1.59
  46  0.993  0.161  0.435-  16 1.56   1 1.58
  47  0.669  0.005  0.539-  21 1.58  18 1.58
  48  0.505  0.004  0.498-  11 1.63  18 1.66   4 1.66
  49  0.668  0.832  0.534-  19 1.66  21 1.70  20 1.71
  50  0.675  0.666  0.512-  19 1.57  24 1.57
  51  0.832  0.507  0.396-  22 1.54  14 1.61
  52  0.016  0.853  0.549-  23 1.58   9 1.59
  53  0.849  0.860  0.566-  20 1.58  23 1.58
  54  0.004  0.677  0.435-   7 1.57  22 1.59
  55  0.668  0.491  0.484-  24 1.55  15 1.58
  56  0.506  0.502  0.467-  10 1.60  24 1.67   5 1.68
  57  0.287  0.593  0.558-

IMPORTANT INFORMATION: All symmetrisations will be switched off!
NOSYMM: (Re-)initialisation of all symmetry stuff for point group C_1.

 KPOINTS: K-Points

Automatic generation of k-mesh.
Space group operators:
 irot       det(A)        alpha          n_x          n_y          n_z        tau_x        tau_y        tau_z
    1     1.000000     0.000000     1.000000     0.000000     0.000000     0.000000     0.000000     0.000000

 Subroutine IBZKPT returns following result:

 Found      5 irreducible k-points:

 Following reciprocal coordinates:
            Coordinates               Weight
  0.000000  0.000000  0.000000      1.000000
  0.333333  0.000000  0.000000      2.000000
  0.000000  0.333333  0.000000      2.000000
  0.333333  0.333333  0.000000      2.000000
 -0.333333  0.333333  0.000000      2.000000

 Following cartesian coordinates:
            Coordinates               Weight
  0.000000  0.000000  0.000000      1.000000
  0.024277  0.014368  0.000000      2.000000
  0.000396  0.028736  0.000000      2.000000
  0.024673  0.043104  0.000000      2.000000
 -0.023881  0.014368  0.000000      2.000000

 TETIRR: Found     24 inequivalent tetrahedra from       54

 SYSTEM =  unknown system
 POSCAR =  POSCAR-c3n4

 Startparameter for this run:
   NWRITE =      2    write-flag & timer
   PREC   = normal    normal or accurate (medium, high low for compatibility)
   ISTART =      0    job   : 0-new  1-cont  2-samecut
   ICHARG =      2    charge: 1-file 2-atom 10-const
   ISPIN  =      2    spin polarized calculation?
   LNONCOLLINEAR =      F non collinear calculations
   LSORBIT =      F    spin-orbit coupling
   INIWAV =      1    electr: 0-lowe 1-rand  2-diag
   LASPH  =      F    aspherical Exc in radial PAW
   METAGGA=      F    non-selfconsistent MetaGGA calc.

 Electronic Relaxation 1
   ENCUT  =  440.0 eV  32.34 Ry    5.69 a.u.  27.94 27.43 30.27*2*pi/ulx,y,z
   ENINI  =  440.0     initial cutoff
   ENAUG  =  644.9 eV  augmentation charge cutoff
   NELM   =    100;   NELMIN=  2; NELMDL= -5     # of ELM steps
   EDIFF  = 0.1E-03   stopping-criterion for ELM
   LREAL  =      F    real-space projection
   NLSPLINE    = F    spline interpolate recip. space projectors
   LCOMPAT=      F    compatible to vasp.4.4
   GGA_COMPAT  = T    GGA compatible to vasp.4.4-vasp.4.6
   LMAXPAW     = -100 max onsite density
   LMAXMIX     =    2 max onsite mixed and CHGCAR
   VOSKOWN=      0    Vosko Wilk Nusair interpolation
   ROPT   =    0.00000   0.00000   0.00000
 Ionic relaxation
   EDIFFG = -.1E-01   stopping-criterion for IOM
   NSW    =      0    number of steps for IOM
   NBLOCK =      1;   KBLOCK =      1    inner block; outer block
   IBRION =     -1    ionic relax: 0-MD 1-quasi-New 2-CG
   NFREE  =      0    steps in history (QN), initial steepest desc. (CG)
   ISIF   =      2    stress and relaxation
   IWAVPR =     10    prediction:  0-non 1-charg 2-wave 3-comb
   ISYM   =      0    0-nonsym 1-usesym 2-fastsym
   LCORR  =      T    Harris-Foulkes like correction to forces

   POTIM  = 0.5000    time-step for ionic-motion
   TEIN   =    0.0    initial temperature
   TEBEG  =    0.0;   TEEND  =   0.0 temperature during run
   SMASS  =  -3.00    Nose mass-parameter (am)
   estimated Nose-frequenzy (Omega)   =  0.10E-29 period in steps =****** mass=  -0.610E-26a.u.
   SCALEE = 1.0000    scale energy and forces
   NPACO  =    256;   APACO  = 16.0  distance and # of slots for P.C.
   PSTRESS=    0.0 pullay stress

  Mass of Ions in am
   POMASS =  12.01 14.00 72.61
  Ionic Valenz
   ZVAL   =   4.00  5.00 14.00
  Atomic Wigner-Seitz radii
  virtual crystal weights
   VCA    =   1.00  1.00  1.00
   NELECT =     270.0000    total number of electrons
   NUPDOWN=      -1.0000    fix difference up-down

 DOS related values:
   EMIN   = -14.00;   EMAX   =  6.00  energy-range for DOS
   EFERMI =   0.00
   ISMEAR =    -5;   SIGMA  =   0.20  broadening in eV -4-tet -1-fermi 0-gaus

 Electronic relaxation 2 (details)
   IALGO  =     38    algorithm
   LDIAG  =      T    sub-space diagonalisation (order eigenvalues)
   LSUBROT=      F    optimize rotation matrix (better conditioning)
   TURBO    =      0    0=normal 1=particle mesh
   IRESTART =      0    0=no restart 2=restart with 2 vectors
   NREBOOT  =      0    no. of reboots
   NMIN     =      0    reboot dimension
   EREF     =   0.00    reference energy to select bands
   IMIX   =      4    mixing-type and parameters
     AMIX     =   0.25;   BMIX     =  0.00
     AMIX_MAG =   1.00;   BMIX_MAG =  0.00
     AMIN     =   0.10
     WC   =   100.;   INIMIX=   1;  MIXPRE=   1;  MAXMIX= -45

 Intra band minimization:
   WEIMIN = 0.0000     energy-eigenvalue tresh-hold
   EBREAK =  0.15E-06  absolut break condition
   DEPER  =   0.30     relativ break condition

   TIME   =   0.40     timestep for ELM

  volume/ion in A,a.u.               =      69.43       468.55
  Fermi-wavevector in a.u.,A,eV,Ry     =   0.668937  1.264108  6.088295  0.447477
  Thomas-Fermi vector in A             =   1.744000

 Write flags
   LWAVE        =      F    write WAVECAR
   LDOWNSAMPLE  =      F    k-point downsampling of WAVECAR
   LCHARG       =      F    write CHGCAR
   LVTOT        =      F    write LOCPOT, total local potential
   LVHAR        =      F    write LOCPOT, Hartree potential only
   LELF         =      F    write electronic localiz. function (ELF)
   LORBIT       =     11    0 simple, 1 ext, 2 COOP (PROOUT), +10 PAW based schemes

 Dipole corrections
   LMONO  =      F    monopole corrections only (constant potential shift)
   LDIPOL =      F    correct potential (dipole corrections)
   IDIPOL =      0    1-x, 2-y, 3-z, 4-all directions
   EPSILON=  1.0000000 bulk dielectric constant

 Exchange correlation treatment:
   GGA     =    --    GGA type
   VOSKOWN=      0    Vosko Wilk Nusair interpolation
   LHFCALC =     F    Hartree Fock is set to
   LHFONE  =     F    Hartree Fock one center treatment
   AEXX    =    0.0000 exact exchange contribution

 Linear response parameters
   LEPSILON=     F    determine dielectric tensor
   LRPA    =     F    only Hartree local field effects (RPA)
   LNABLA  =     F    use nabla operator in PAW spheres
   LVEL    =     F    velocity operator in full k-point grid
   LINTERFAST=   F  fast interpolation
   KINTER  =     0    interpolate to denser k-point grid
   CSHIFT  =0.1000    complex shift for real part using Kramers Kronig
   OMEGAMAX=  -1.0    maximum frequency
   DEG_THRESHOLD= 0.2000000E-02 threshold for treating states as degnerate
   RTIME   =   -0.100 relaxation time in fs
  (WPLASMAI=    0.000 imaginary part of plasma frequency in eV, 0.658/RTIME)
   DFIELD  = 0.0000000 0.0000000 0.0000000 field for delta impulse in time

 Orbital magnetization related:
   ORBITALMAG=     F  switch on orbital magnetization
   LCHIMAG   =     F  perturbation theory with respect to B field
   DQ        =  0.001000  dq finite difference perturbation B field
   LLRAUG    =     F  two centre corrections for induced B field

 Static calculation
 charge density and potential will be updated during run
[...]
  Kinetic  4076.79227  4150.97210  4675.67884    15.24248   -39.40463   -17.80451
  Fock        0.00000     0.00000     0.00000     0.00000     0.00000     0.00000
  vdW        -2.77631    -2.66501    -0.42187     0.00880     0.03355    -0.02397
  Total    -332.79160  -302.37197   -73.16423     5.70114   -15.64902    -8.60514
  in kB    -134.72583  -122.41088   -29.61947     2.30802    -6.33528    -3.48367

 VOLUME and BASIS-vectors are now :
  energy-cutoff  :      440.00
  volume of cell :     3957.60
      direct lattice vectors                 reciprocal lattice vectors
    16.335240597 -0.225073759  0.000000000     0.061720652  0.036528910  0.000000000
    -8.167620299 13.800325373  0.000000000     0.001006621  0.073057821  0.000000000
     0.000000000  0.000000000 17.700000000     0.000000000  0.000000000  0.056497175

  length of vectors
    16.336791103 16.036177903 17.700000000     0.071720291  0.073064755  0.056497175

 FORCES acting on ions
    electron-ion (+dipol)            ewald-force                    non-local-force                 convergence-correction
   -.377E+01 0.103E+01 0.811E+02   0.386E+01 -.739E+01 -.790E+02   -.840E-01 0.393E+01 -.123E+01   0.111E-01 0.938E-02 0.205E-02
   0.465E+01 0.207E+02 0.874E+02   0.749E+00 -.198E+02 -.865E+02   -.281E+01 -.561E+00 -.375E+00   0.116E-01 0.425E-02 0.370E-02
   -.139E+02 0.223E+02 0.856E+02   0.851E+01 -.213E+02 -.856E+02   0.278E+01 -.639E+00 0.155E+00   0.281E-01 -.172E-03 -.475E-02
   0.478E+02 -.383E+02 -.593E+02   -.485E+02 0.389E+02 0.590E+02   0.161E+01 -.882E+00 -.317E+00   -.728E-02 -.255E-02 0.504E-02
   -.888E+01 0.370E+02 0.136E+03   0.966E+01 -.379E+02 -.136E+03   -.491E+00 0.125E+01 0.134E+01   -.652E-02 0.975E-02 0.117E-01
   -.445E+02 -.127E+02 0.656E+02   0.453E+02 0.133E+02 -.656E+02   -.175E+01 -.720E+00 0.612E+00   0.819E-04 0.440E-02 0.126E-02
   0.268E+02 -.232E+02 -.245E+02   -.275E+02 0.179E+02 0.228E+02   0.391E+00 0.328E+01 0.599E+00   0.177E-02 0.126E-01 0.262E-02
   0.216E+02 -.785E+01 -.336E+02   -.161E+02 0.112E+02 0.330E+02   -.341E+01 -.173E+01 0.285E+00   -.536E-02 -.473E-02 0.524E-02
   -.951E+01 0.222E+01 -.408E+02   0.410E+01 0.109E+01 0.403E+02   0.337E+01 -.166E+01 -.153E-01   -.387E-03 -.653E-03 0.282E-02
   -.153E+02 0.126E+02 -.488E+02   0.156E+02 -.110E+02 0.495E+02   0.964E+00 -.146E+01 -.141E+01   0.425E-02 -.102E-01 -.710E-02
   -.236E+01 0.160E+02 0.329E+02   0.231E+01 -.170E+02 -.318E+02   -.485E-01 0.233E+01 -.200E+00   0.272E-02 -.120E-01 0.583E-02
   0.208E+02 0.117E+02 -.449E+02   -.208E+02 -.984E+01 0.446E+02   -.104E+01 -.162E+01 -.119E+01   0.170E-01 0.114E-01 0.104E-01
   -.276E+01 -.154E+02 -.792E+01   0.276E+01 0.972E+01 0.100E+02   -.119E+00 0.365E+01 -.107E+01   -.116E-01 0.215E-02 -.165E-03
   0.297E+02 0.219E+02 0.130E+03   -.249E+02 -.190E+02 -.130E+03   -.279E+01 -.181E+01 0.764E+00   -.174E-01 -.321E-02 0.631E-02
   -.127E+02 0.179E+02 0.600E+02   0.766E+01 -.149E+02 -.586E+02   0.303E+01 -.138E+01 -.787E+00   -.287E-01 0.877E-02 0.402E-02
   0.461E+02 -.119E+02 0.452E+02   -.470E+02 0.125E+02 -.450E+02   0.184E+01 -.677E+00 0.338E+00   0.807E-03 -.341E-02 0.209E-02
   0.879E+00 0.521E+02 0.146E+03   -.163E+01 -.531E+02 -.146E+03   0.162E+00 0.156E+01 0.118E+01   0.120E-01 -.676E-02 -.463E-02
   -.458E+02 -.406E+02 -.671E+02   0.465E+02 0.411E+02 0.671E+02   -.172E+01 -.962E+00 -.473E+00   0.640E-02 -.821E-02 0.656E-02
   -.222E+02 -.227E+02 -.967E+02   0.227E+02 0.175E+02 0.954E+02   0.168E-01 0.294E+01 0.917E-01   0.241E-02 -.507E-02 -.262E-03
   0.118E+02 0.112E+01 -.752E+02   -.642E+01 0.209E+01 0.738E+02   -.312E+01 -.155E+01 0.152E+00   -.376E-02 -.975E-02 0.267E-02
   -.234E+02 -.490E+01 -.617E+02   0.181E+02 0.830E+01 0.600E+02   0.308E+01 -.172E+01 0.760E+00   0.994E-02 -.132E-01 0.578E-02
   0.495E+02 -.495E+02 0.942E+02   -.510E+02 0.495E+02 -.937E+02   0.163E+01 -.124E+01 0.286E-01   -.146E-02 0.214E-01 0.778E-03
   -.734E+01 0.305E+02 -.129E+03   0.728E+01 -.319E+02 0.129E+03   0.156E-01 0.215E+01 -.127E+01   -.381E-02 -.310E-02 0.140E-02
   -.580E+02 -.182E+02 -.414E+02   0.593E+02 0.183E+02 0.417E+02   -.184E+01 -.429E+00 -.631E+00   -.155E-01 -.875E-02 -.320E-02
   -.996E+01 0.250E+02 0.115E+03   0.100E+02 -.256E+02 -.116E+03   -.272E+00 0.136E+00 0.172E+01   0.397E-01 0.853E-02 -.147E-02
   -.132E+03 -.211E+02 0.152E+03   0.157E+03 0.349E+02 -.162E+03   -.285E+02 -.159E+02 0.113E+02   0.701E-02 0.115E-01 0.413E-02
   0.106E+03 -.104E+03 -.161E+03   -.131E+03 0.117E+03 0.170E+03   0.285E+02 -.150E+02 -.112E+02   -.108E-01 0.131E-02 0.386E-02
   0.377E+01 0.116E+03 0.267E+03   -.168E+01 -.140E+03 -.286E+03   -.267E+01 0.267E+02 0.215E+02   -.206E-01 0.247E-01 0.227E-01
   -.259E+02 0.941E+02 0.282E+03   0.231E+02 -.116E+03 -.303E+03   0.267E+01 0.243E+02 0.237E+02   0.122E-01 0.173E-01 0.230E-01
   0.131E+03 -.665E+02 -.769E+02   -.156E+03 0.831E+02 0.768E+02   0.278E+02 -.195E+02 -.545E+00   -.261E-01 0.864E-02 0.334E-03
   -.991E+02 -.554E+02 0.171E+03   0.123E+03 0.625E+02 -.187E+03   -.276E+02 -.821E+01 0.187E+02   -.346E-02 0.551E-02 0.285E-02
   -.317E+01 -.965E+00 -.163E+02   0.325E+01 0.119E+01 0.172E+02   -.160E+00 -.121E+00 -.109E+01   -.184E-03 -.225E-03 0.133E-02
   0.104E+02 -.155E+02 -.644E+02   -.108E+02 0.157E+02 0.690E+02   0.129E+00 -.377E+00 -.512E+01   -.349E-02 0.248E-02 0.597E-02
   -.758E+00 -.420E+02 -.206E+03   0.181E+02 0.519E+02 0.224E+03   -.194E+02 -.116E+02 -.219E+02   0.193E-01 0.535E-02 0.271E-02
   0.504E+01 0.467E+02 -.503E+02   -.210E+02 -.430E+02 0.595E+02   0.188E+02 -.393E+01 -.105E+02   0.114E-01 0.172E-02 0.517E-03
   -.104E+02 0.763E+02 0.834E+02   0.132E+02 -.104E+03 -.917E+02   -.321E+01 0.316E+02 0.991E+01   0.517E-02 -.216E-01 0.102E-01
   -.737E+00 0.742E+02 0.932E+02   -.114E+01 -.102E+03 -.102E+03   0.225E+01 0.315E+02 0.100E+02   0.693E-02 -.147E-01 0.106E-01
   0.275E+02 -.409E+02 -.226E+03   -.483E+02 0.513E+02 0.240E+03   0.233E+02 -.122E+02 -.172E+02   -.313E-02 -.116E-01 -.129E-01
   -.864E+00 0.531E+02 -.716E+02   0.153E+02 -.499E+02 0.837E+02   -.170E+02 -.320E+01 -.142E+02   0.259E-01 0.182E-01 0.119E-01
   0.330E+02 0.120E+02 0.519E+02   -.366E+02 -.145E+02 -.510E+02   0.475E+01 0.313E+01 -.474E+00   0.146E-01 0.194E-01 0.133E-01
   0.954E+01 0.260E+02 0.997E+02   -.113E+02 -.279E+02 -.105E+03   0.195E+01 0.209E+01 0.551E+01   -.595E-01 0.470E-02 0.403E-02
   -.129E+03 -.700E+02 -.839E+02   0.154E+03 0.862E+02 0.842E+02   -.283E+02 -.188E+02 -.760E+00   0.122E-01 -.898E-02 0.937E-02
   0.101E+03 -.474E+02 0.133E+03   -.127E+03 0.540E+02 -.146E+03   0.288E+02 -.765E+01 0.165E+02   0.222E-02 -.638E-02 0.493E-02
   0.811E+01 0.109E+03 0.292E+03   -.346E+01 -.132E+03 -.311E+03   -.480E+01 0.250E+02 0.225E+02   0.297E-01 -.160E-01 -.112E-01
   0.164E+01 0.160E+03 0.244E+03   -.308E+01 -.188E+03 -.253E+03   0.219E+01 0.323E+02 0.105E+02   0.167E-01 -.303E-01 -.121E-01
   0.133E+03 -.218E+02 0.928E+02   -.159E+03 0.368E+02 -.971E+02   0.293E+02 -.172E+02 0.530E+01   0.836E-02 -.413E-02 0.470E-02
   -.959E+02 -.107E+03 -.197E+03   0.120E+03 0.120E+03 0.209E+03   -.270E+02 -.148E+02 -.144E+02   0.111E-01 -.912E-02 0.472E-02
   0.578E+00 -.221E+02 -.921E+01   -.467E+00 0.231E+02 0.700E+01   -.109E+00 -.139E+01 0.257E+01   0.268E-03 -.986E-02 0.714E-02
   -.100E+02 -.173E+02 -.126E+03   0.101E+02 0.188E+02 0.133E+03   0.218E+00 -.172E+01 -.697E+01   0.339E-02 -.169E-01 0.661E-02
   -.152E+03 -.429E+02 -.637E+02   0.178E+03 0.587E+02 0.638E+02   -.287E+02 -.179E+02 -.345E+00   -.132E-01 -.121E-01 -.266E-02
   0.120E+03 -.101E+03 0.208E+03   -.145E+03 0.114E+03 -.213E+03   0.298E+02 -.143E+02 0.746E+01   -.265E-01 0.390E-01 0.379E-02
   0.349E+00 0.100E+03 -.260E+03   0.347E+01 -.124E+03 0.278E+03   -.441E+01 0.262E+02 -.217E+02   -.541E-02 0.501E-03 -.309E-04
   -.243E+02 0.770E+02 -.292E+03   0.229E+02 -.983E+02 0.313E+03   0.160E+01 0.238E+02 -.249E+02   -.507E-02 -.818E-02 -.370E-02
   0.128E+03 -.856E+02 0.159E+03   -.148E+03 0.105E+03 -.170E+03   0.226E+02 -.215E+02 0.125E+02   -.297E-02 0.222E-01 0.396E-02
   -.114E+03 -.503E+02 -.125E+03   0.140E+03 0.572E+02 0.137E+03   -.300E+02 -.764E+01 -.141E+02   -.406E-01 0.170E-02 -.497E-02
   -.313E+02 0.145E+02 0.304E+02   0.336E+02 -.160E+02 -.320E+02   -.324E+01 0.218E+01 0.231E+01   -.188E-02 -.109E-01 -.173E-02
   0.319E+02 -.825E+02 -.683E+03   -.324E+02 0.902E+02 0.692E+03   0.597E+00 -.923E+01 -.102E+02   0.767E-01 -.173E-02 -.116E-01
   0.416E+00 -.867E+01 -.406E+01   0.782E-13 0.227E-12 0.455E-12   -.498E+00 0.868E+01 0.390E+01   0.863E-01 0.244E-02 0.160E+00

 POSITION                                       TOTAL-FORCE (eV/Angst)
     -0.01765      2.92285      7.54842         0.013879     -2.424149      0.878693
      1.44032      5.43697      7.66690         2.602535      0.362917      0.524916
     -1.50437      5.38324      7.56299        -2.605134      0.336400      0.156574
      6.78580      0.78032      8.95078         0.910545     -0.318429     -0.572638
      4.11590      5.43550      7.30170         0.281941      0.408032      1.044879
      1.39936      0.70260      7.94166        -0.864588     -0.160306      0.625928
     -4.24022      9.80291      8.56505        -0.255957     -2.069033     -1.122202
     -2.62495     12.21917      8.87126         2.047558      1.617054     -0.362080
     -5.52577     12.33183      8.81682        -2.044205      1.650713     -0.524791
      2.83890      7.46550      8.88370         1.237707      0.091830     -0.720449
      0.04651     12.11581      8.65477        -0.091108      1.337790      0.831155
     -3.00803      7.46166      8.50788        -1.066171      0.254798     -1.401291
      8.24415      2.93778      8.36687        -0.131980     -2.062198      1.026281
      9.56258      5.20214      7.07792         2.090924      1.031918      0.452470
      6.74998      5.30441      7.70767        -2.058078      1.637222      0.686908
     14.92008      0.51027      8.15439         0.968123     -0.071656      0.517566
     12.20984      5.12249      6.97168        -0.580066      0.583422      0.986235
      9.63768      0.76487      9.06296        -1.017976     -0.473118     -0.515990
      4.20856      9.67656      9.40310         0.515904     -2.315868     -1.150112
      5.57378     12.20488      9.25498         2.273339      1.640718     -1.202073
      2.66594     12.17938      9.22749        -2.241365      1.663386     -0.905055
     10.73067      7.55610      7.44302         0.110308     -1.214330      0.469216
      8.22481     12.22921      9.46356        -0.047560      0.741478     -1.278804
      5.61896      7.51458      8.67053        -0.585629     -0.363165     -0.385345
     -0.01694      4.59183      7.52300        -0.191719     -0.479181      0.320534
      1.37632      2.18436      7.45085        -3.303378     -2.052786      1.727909
      5.47823     -0.05075      9.24219         3.247308     -1.898498     -2.140487
      5.48085      4.74900      6.94523        -0.596654      3.050124      3.137856
      2.68461      4.90082      6.89863        -0.106157      2.502318      3.369837
      6.81653      2.32519      8.72879         3.255912     -2.921511     -0.622995
     -5.47847     13.60202      7.90582        -3.343009     -1.132850      2.885888
      0.01985      0.02524      8.54630        -0.075482      0.099314     -0.185589
     -4.09670     11.42868      8.85459        -0.281086     -0.156889     -0.506381
     -3.08126      8.87475      9.16485        -2.122204     -1.684474     -3.601825
      1.43966      6.70309      8.70045         2.871134     -0.233556     -1.360224
      1.42922     11.35187      8.66810        -0.483249      3.747412      1.615219
     -1.33282     11.37003      8.48491         0.381689      3.775091      1.639299
      2.85876      8.83074      9.64356         2.547996     -1.871955     -3.175063
     -1.63494      6.64258      8.58656        -2.571448     -0.042518     -2.035365
     12.09489      6.62189      7.71699         1.243383      0.624419      0.437373
      8.20499      4.40602      7.59892         0.156947      0.198584      0.597810
      9.64908      2.30377      8.76571        -3.369396     -2.679467     -0.444563
      5.45743     13.42404      8.28093         3.521864     -0.994056      2.662670
     -2.66392      4.80142      6.70480        -0.117340      2.739374      3.357685
     10.86942      4.36947      6.71766         0.770962      4.112889      2.118802
     14.90513      1.99862      7.70182         3.437354     -2.295706      0.996441
     10.88328     -0.07817      9.54881        -2.943361     -1.897386     -2.424416
      8.21511     -0.06004      8.82007         0.001824     -0.367140      0.368353
      4.11918     11.33527      9.45533         0.308746     -0.264708     -0.710489
      5.59657      9.03231      9.07062        -3.653049     -2.109726     -0.240819
      9.45450      6.80491      7.00472         4.086507     -1.135628      2.208681
     -6.70813     11.76804      9.71159        -0.595855      3.025695     -3.110020
      6.85200     11.67113     10.01908         0.175156      2.388951     -3.657127
     -5.46234      9.34551      7.69162         3.068296     -2.357378      1.954258
      6.89172      6.62955      8.56363        -3.973717     -0.726796     -2.127378
      4.16152      6.81114      8.26875        -0.929945      0.612311      0.762716
     -0.15805      8.11742      9.87297         0.119021     -1.459700     -1.878581
    total drift:                                0.004288      0.008714      0.002933

  FREE ENERGIE OF THE ION-ELECTRON SYSTEM (eV)
  free  energy   TOTEN  =      -411.22040033 eV

  energy  without entropy=     -411.22040033  energy(sigma->0) =     -411.22040033

 stress matrix after NEB project (eV)
   -332.79160      5.70114     -8.60514
      5.70114   -302.37197    -15.64902
     -8.60514    -15.64902    -73.16423
  FORCES: max atom, RMS     4.781994    3.135166
  FORCE total and by dimension   23.669981    4.112889
  Stress total and by dimension  456.327678  332.791602

 total charge

[...]

 magnetization (x)

# of ion       s       p       d       tot
    1        0.000   0.000   0.000   0.000
    2        0.000   0.000   0.000   0.001
    3       -0.000  -0.000   0.000  -0.000
    4        0.000   0.000   0.000   0.000
    5        0.000   0.000   0.000   0.001
    6        0.000   0.000   0.000   0.000
    7       -0.000  -0.000   0.000  -0.000
    8       -0.000   0.000   0.000  -0.000
    9        0.000   0.000   0.000   0.000
   10        0.000  -0.000   0.000  -0.000
   11       -0.000   0.000   0.000   0.000
   12        0.000  -0.000   0.000  -0.000
   13        0.000   0.000   0.000   0.000
   14        0.000   0.000   0.000   0.000
   15        0.000   0.001   0.000   0.001
   16        0.000   0.000   0.000   0.000
   17       -0.000  -0.000   0.000  -0.000
   18        0.000   0.000   0.000   0.000
   19        0.000   0.000   0.000   0.001
   20        0.000   0.000   0.000   0.000
   21        0.000   0.000   0.000   0.000
   22        0.000  -0.000   0.000   0.000
   23        0.000   0.000   0.000   0.000
   24        0.000   0.000   0.000   0.000
   25        0.000  -0.000   0.000  -0.000
   26        0.000  -0.000   0.000   0.000
   27        0.000   0.000   0.000   0.000
   28        0.000  -0.000   0.000  -0.000
   29       -0.000  -0.000   0.000  -0.000
   30        0.000   0.000   0.000   0.000
   31        0.000   0.000   0.000   0.000
   32        0.000   0.000   0.000   0.000
   33       -0.000   0.000   0.000   0.000
   34       -0.000   0.000   0.000   0.000
   35        0.000   0.000   0.000   0.000
   36       -0.000   0.000   0.000   0.000
   37       -0.000   0.000   0.000  -0.000
   38        0.000   0.000   0.000   0.000
   39        0.000   0.000   0.000   0.000
   40        0.000   0.000   0.000   0.000
   41        0.000  -0.000   0.000  -0.000
   42        0.000  -0.000   0.000  -0.000
   43        0.000  -0.000   0.000  -0.000
   44        0.000   0.000   0.000   0.000
   45        0.000   0.000   0.000   0.000
   46        0.000   0.000   0.000   0.000
   47        0.000  -0.000   0.000  -0.000
   48        0.000   0.000   0.000   0.000
   49        0.000  -0.000   0.000  -0.000
   50        0.000  -0.000   0.000  -0.000
   51        0.000   0.000   0.000   0.000
   52        0.000   0.000   0.000   0.000
   53        0.000   0.000   0.000   0.000
   54        0.000   0.000   0.000   0.000
   55        0.000  -0.000   0.000  -0.000
   56        0.000   0.001   0.000   0.001
   57       -0.000  -0.003  -0.000  -0.003
tot          0.000   0.001  -0.000   0.001

 BZINTS: Fermi energy: -4.091273;270.000000 electrons
         Band energy:***********;  BLOECHL correction:  0.000000