 vasp.5.4.4.18Apr17-6-g9f103f2a35 (build Sep 02 2021 13:24:58) complex

 executed on             LinuxIFC date 2023.01.15  13:02:12

 INCAR:
 POTCAR:    PAW_PBE C 08Apr2002
 POTCAR:    PAW_PBE N 08Apr2002
 POTCAR:    PAW_PBE C 08Apr2002
 POTCAR:    PAW_PBE Cr_pv 02Aug2007
 POTCAR:    PAW_PBE C 08Apr2002
   VRHFIN =C: s2p2

   TITEL  = PAW_PBE C 08Apr2002
   POMASS =   12.011; ZVAL   =    4.000    mass and valenz
   ENMAX  =  400.000; ENMIN  =  300.000 eV

[...]

   TITEL  = PAW_PBE C 08Apr2002
   POMASS =   12.011; ZVAL   =    4.000    mass and valenz
   ENMAX  =  400.000; ENMIN  =  300.000 eV

   TITEL  = PAW_PBE Cr_pv 02Aug2007
   POMASS =   51.996; ZVAL   =   12.000    mass and valenz
   ENMAX  =  265.681; ENMIN  =  199.261 eV

 Optimization of the real space projectors (new method)

 maximal supplied QI-value         = 25.13
 optimisation between [QCUT,QGAM] = [ 11.81, 23.88] = [ 39.08,159.64] Ry
 Optimized for a Real-space Cutoff    1.18 Angstroem

   l    n(q)    QCUT    max X(q) W(low)/X(q) W(high)/X(q)  e(spline)
   0      8    11.813   115.676    0.10E-03    0.16E-03    0.35E-06
   0      8    11.813    87.132    0.10E-03    0.16E-03    0.35E-06
   1      8    11.813     4.429    0.16E-03    0.13E-04    0.22E-06
   1      8    11.813     2.733    0.13E-03    0.10E-04    0.18E-06
 Optimization of the real space projectors (new method)

[...]

   l    n(q)    QCUT    max X(q) W(low)/X(q) W(high)/X(q)  e(spline)
   0      8    11.813   115.676    0.10E-03    0.16E-03    0.35E-06
   0      8    11.813    87.132    0.10E-03    0.16E-03    0.35E-06
   1      8    11.813     4.429    0.16E-03    0.13E-04    0.22E-06
   1      8    11.813     2.733    0.13E-03    0.10E-04    0.18E-06
 Optimization of the real space projectors (new method)

 maximal supplied QI-value         = 16.25
 optimisation between [QCUT,QGAM] = [ 11.86, 23.89] = [ 39.41,159.82] Ry
 Optimized for a Real-space Cutoff    1.33 Angstroem

   l    n(q)    QCUT    max X(q) W(low)/X(q) W(high)/X(q)  e(spline)
   1      9    11.864     3.262    0.48E-04    0.16E-03    0.14E-06
   1      9    11.864     5.741    0.74E-04    0.40E-03    0.35E-06
   2      9    11.864    60.438    0.17E-03    0.21E-03    0.26E-06
   2      9    11.864    55.380    0.17E-03    0.21E-03    0.27E-06
   0      9    11.864    80.273    0.40E-04    0.47E-04    0.12E-06
   0      9    11.864    36.654    0.35E-04    0.41E-04    0.11E-06
  PAW_PBE C 08Apr2002                   :
  PAW_PBE N 08Apr2002                   :
  PAW_PBE C 08Apr2002                   :
  PAW_PBE Cr_pv 02Aug2007               :

 POSCAR: POSCAR-clean
  positions in cartesian coordinates
 exchange correlation table for  LEXCH =        8
   RHO(1)=    0.500       N(1)  =     2000
   RHO(2)=  100.500       N(2)  =     4000

 ion  position               nearest neighbor table
   1  0.000  1.000  0.498-   2 1.42  60 1.42  70 1.43
   2  0.056  0.111  0.498-   1 1.42  13 1.42  15 1.43
   3  0.168  0.002  0.498-   4 1.42  62 1.43  60 1.43
   4  0.224  0.113  0.498-   3 1.42  15 1.42  17 1.44
   5  0.334  0.002  0.498-   6 1.42  62 1.43  64 1.43
   6  0.390  0.113  0.498-   5 1.42  19 1.42  17 1.44
   7  0.500  1.000  0.498-   8 1.42  64 1.42  66 1.43
   8  0.556  0.111  0.498-   7 1.42  21 1.42  19 1.43
   9  0.666  0.998  0.498-  10 1.42  66 1.42  68 1.44
  10  0.722  0.109  0.498-   9 1.42  23 1.43  21 1.43
  11  0.832  0.998  0.498-  12 1.42  70 1.42  68 1.44
  12  0.888  0.109  0.498-  11 1.42  23 1.43  13 1.43
  13  0.999  0.165  0.498-  14 1.42   2 1.42  12 1.43
  14  0.054  0.277  0.499-  13 1.42  25 1.42  27 1.43
  15  0.167  0.168  0.498-  16 1.42   4 1.42   2 1.43
  16  0.223  0.280  0.500-  15 1.42  27 1.43  29 1.44
  17  0.335  0.170  0.499-  18 1.42   4 1.44   6 1.44
  18  0.391  0.281  0.503-  17 1.42  31 1.44  29 1.44
  19  0.501  0.168  0.498-  20 1.42   6 1.42   8 1.43
  20  0.557  0.280  0.500-  19 1.42  33 1.43  31 1.44
  21  0.667  0.165  0.498-  22 1.42   8 1.42  10 1.43
  22  0.723  0.277  0.498-  21 1.42  35 1.42  33 1.43
  23  0.833  0.165  0.498-  24 1.42  10 1.43  12 1.43
  24  0.888  0.276  0.498-  23 1.42  25 1.42  35 1.43
  25  0.999  0.332  0.498-  14 1.42  26 1.42  24 1.42
  26  0.054  0.444  0.499-  39 1.42  37 1.42  25 1.42
  27  0.165  0.333  0.500-  28 1.42  16 1.43  14 1.43
  28  0.219  0.444  0.502-  41 1.41  27 1.42  39 1.42
  29  0.335  0.338  0.503-  30 1.41  18 1.44  16 1.44
  30  0.387  0.448  0.510-  41 1.41  29 1.41  71 2.00
  31  0.503  0.338  0.504-  32 1.41  18 1.44  20 1.44
  32  0.562  0.448  0.510-  43 1.41  31 1.41  71 2.00
  33  0.668  0.333  0.500-  34 1.42  20 1.43  22 1.43
  34  0.725  0.444  0.501-  43 1.41  33 1.42  45 1.42
  35  0.833  0.332  0.498-  22 1.42  36 1.42  24 1.43
  36  0.890  0.444  0.498-  45 1.42  37 1.42  35 1.42
  37  0.000  0.500  0.498-  36 1.42  26 1.42  38 1.42
  38  0.056  0.611  0.498-  47 1.42  49 1.42  37 1.42
  39  0.165  0.500  0.500-  26 1.42  28 1.42  40 1.42
  40  0.220  0.611  0.500-  49 1.42  51 1.42  39 1.42
  41  0.329  0.499  0.505-  30 1.41  28 1.41  42 1.44
  42  0.385  0.612  0.505-  53 1.41  51 1.41  41 1.44
  43  0.671  0.499  0.505-  32 1.41  34 1.41  44 1.44
  44  0.727  0.612  0.505-  55 1.41  57 1.41  43 1.44
  45  0.836  0.500  0.499-  36 1.42  34 1.42  46 1.42
  46  0.891  0.611  0.499-  47 1.42  57 1.42  45 1.42
  47  0.001  0.667  0.498-  46 1.42  38 1.42  48 1.42
  48  0.057  0.779  0.498-  59 1.42  47 1.42  61 1.43
  49  0.166  0.667  0.499-  40 1.42  38 1.42  50 1.42
  50  0.222  0.779  0.498-  63 1.42  49 1.42  61 1.42
  51  0.331  0.667  0.502-  42 1.41  52 1.42  40 1.42
  52  0.388  0.778  0.500-  51 1.42  65 1.43  63 1.43
  53  0.494  0.663  0.510-  42 1.41  54 1.41  71 2.00
  54  0.553  0.773  0.503-  53 1.41  67 1.44  65 1.44
  55  0.669  0.663  0.510-  44 1.41  56 1.41  71 2.00
  56  0.721  0.773  0.504-  55 1.41  67 1.44  69 1.44
  57  0.837  0.667  0.501-  44 1.41  58 1.42  46 1.42
  58  0.891  0.778  0.500-  57 1.42  69 1.42  59 1.43
  59  0.002  0.835  0.498-  60 1.42  48 1.42  58 1.43
  60  0.057  0.946  0.498-  59 1.42   1 1.42   3 1.43
  61  0.168  0.835  0.498-  62 1.42  50 1.42  48 1.43
  62  0.223  0.946  0.498-  61 1.42   3 1.43   5 1.43
  63  0.333  0.835  0.499-  64 1.42  50 1.42  52 1.43
  64  0.389  0.946  0.498-  63 1.42   7 1.42   5 1.43
  65  0.499  0.832  0.500-  66 1.42  52 1.43  54 1.44
  66  0.555  0.943  0.498-  65 1.42   9 1.42   7 1.43
  67  0.665  0.830  0.503-  68 1.42  56 1.44  54 1.44
  68  0.721  0.941  0.499-  67 1.42   9 1.44  11 1.44
  69  0.833  0.832  0.500-  70 1.42  58 1.42  56 1.44
  70  0.889  0.943  0.498-  69 1.42  11 1.42   1 1.43
  71  0.528  0.556  0.554-  55 2.00  32 2.00  53 2.00  30 2.00

IMPORTANT INFORMATION: All symmetrisations will be switched off!
NOSYMM: (Re-)initialisation of all symmetry stuff for point group C_1.

 KPOINTS: K-Points

Automatic generation of k-mesh.
Space group operators:
 irot       det(A)        alpha          n_x          n_y          n_z        tau_x        tau_y        tau_z
    1     1.000000     0.000000     1.000000     0.000000     0.000000     0.000000     0.000000     0.000000

 Subroutine IBZKPT returns following result:

 Found      4 irreducible k-points:

 Following reciprocal coordinates:
            Coordinates               Weight
  0.000000  0.000000  0.000000      1.000000
  0.500000  0.000000  0.000000      1.000000
 -0.000000  0.500000  0.000000      1.000000
  0.500000  0.500000  0.000000      1.000000

 Following cartesian coordinates:
            Coordinates               Weight
  0.000000  0.000000  0.000000      1.000000
  0.033606  0.019589  0.000000      1.000000
 -0.000000  0.039178  0.000000      1.000000
  0.033606  0.058767  0.000000      1.000000

 SYSTEM =  unknown system
 POSCAR =  POSCAR-clean

 Startparameter for this run:
   NWRITE =      2    write-flag & timer
   PREC   = accura    normal or accurate (medium, high low for compatibility)
   ISTART =      0    job   : 0-new  1-cont  2-samecut
   ICHARG =      2    charge: 1-file 2-atom 10-const
   ISPIN  =      2    spin polarized calculation?
   LNONCOLLINEAR =      F non collinear calculations
   LSORBIT =      F    spin-orbit coupling
   INIWAV =      1    electr: 0-lowe 1-rand  2-diag
   LASPH  =      F    aspherical Exc in radial PAW
   METAGGA=      F    non-selfconsistent MetaGGA calc.

 Electronic Relaxation 1
   ENCUT  =  550.0 eV  40.42 Ry    6.36 a.u.  28.45 28.25 28.68*2*pi/ulx,y,z
   ENINI  =  550.0     initial cutoff
   ENAUG  =  644.9 eV  augmentation charge cutoff
   NELM   =     50;   NELMIN=  2; NELMDL= -5     # of ELM steps
   EDIFF  = 0.1E-04   stopping-criterion for ELM
   LREAL  =      T    real-space projection
   NLSPLINE    = F    spline interpolate recip. space projectors
   LCOMPAT=      F    compatible to vasp.4.4
   GGA_COMPAT  = T    GGA compatible to vasp.4.4-vasp.4.6
   LMAXPAW     = -100 max onsite density
   LMAXMIX     =    2 max onsite mixed and CHGCAR
   VOSKOWN=      0    Vosko Wilk Nusair interpolation
   ROPT   =   -0.00025  -0.00025  -0.00025  -0.00025
 Ionic relaxation
   EDIFFG = -.5E-01   stopping-criterion for IOM
   NSW    =    400    number of steps for IOM
   NBLOCK =      1;   KBLOCK =    400    inner block; outer block
   IBRION =      2    ionic relax: 0-MD 1-quasi-New 2-CG
   NFREE  =      1    steps in history (QN), initial steepest desc. (CG)
   ISIF   =      3    stress and relaxation
   IWAVPR =     11    prediction:  0-non 1-charg 2-wave 3-comb
   ISYM   =      0    0-nonsym 1-usesym 2-fastsym
   LCORR  =      T    Harris-Foulkes like correction to forces

   POTIM  = 0.3000    time-step for ionic-motion
   TEIN   =    0.0    initial temperature
   TEBEG  =    0.0;   TEEND  =   0.0 temperature during run
   SMASS  =  -3.00    Nose mass-parameter (am)
   estimated Nose-frequenzy (Omega)   =  0.10E-29 period in steps =****** mass=  -0.506E-26a.u.
   SCALEE = 1.0000    scale energy and forces
   NPACO  =    256;   APACO  = 16.0  distance and # of slots for P.C.
   PSTRESS=    0.0 pullay stress

  Mass of Ions in am
   POMASS =  12.01 14.00 12.01 52.00
  Ionic Valenz
   ZVAL   =   4.00  5.00  4.00 12.00
  Atomic Wigner-Seitz radii
  virtual crystal weights
   VCA    =   1.00  1.00  1.00  1.00
   NELECT =     293.0000    total number of electrons
   NUPDOWN=      -1.0000    fix difference up-down

 DOS related values:
   EMIN   =  10.00;   EMAX   =-10.00  energy-range for DOS
   EFERMI =   0.00
   ISMEAR =     0;   SIGMA  =   0.10  broadening in eV -4-tet -1-fermi 0-gaus

 Electronic relaxation 2 (details)
   IALGO  =     68    algorithm
   LDIAG  =      T    sub-space diagonalisation (order eigenvalues)
   LSUBROT=      F    optimize rotation matrix (better conditioning)
   TURBO    =      0    0=normal 1=particle mesh
   IRESTART =      0    0=no restart 2=restart with 2 vectors
   NREBOOT  =      0    no. of reboots
   NMIN     =      0    reboot dimension
   EREF     =   0.00    reference energy to select bands
   IMIX   =      4    mixing-type and parameters
     AMIX     =   0.40;   BMIX     =  1.00
     AMIX_MAG =   1.60;   BMIX_MAG =  1.00
     AMIN     =   0.10
     WC   =   100.;   INIMIX=   1;  MIXPRE=   1;  MAXMIX= -45

 Intra band minimization:
[...]
    -7.428940349 12.755999190  0.000000000     0.000000916  0.078395019  0.000000000
     0.000000000  0.000000000 15.000000000     0.000000000  0.000000000  0.066666667

  length of vectors
    14.857880699 14.761594428 15.000000000     0.077886982  0.078395019  0.066666667

 FORCES acting on ions
    electron-ion (+dipol)            ewald-force                    non-local-force                 convergence-correction
   -.207E+00 0.888E+00 0.794E+01   0.315E+00 -.925E+00 -.797E+01   -.123E+00 0.409E-01 0.246E-01   -.577E-02 0.676E-03 -.292E-03
   -.366E+01 -.981E+00 0.762E+01   0.397E+01 0.994E+00 -.765E+01   -.296E+00 -.362E-01 0.234E-01   -.425E-02 0.152E-02 -.290E-03
   0.199E+00 0.622E+00 0.734E+01   -.210E+00 -.478E+00 -.737E+01   0.132E-02 -.135E+00 0.251E-01   -.772E-04 0.196E-02 -.311E-03
   -.210E+01 -.352E-01 0.760E+01   0.214E+01 0.124E+00 -.761E+01   -.411E-01 -.921E-01 0.101E-01   0.516E-03 0.213E-02 -.279E-03
   0.215E+01 0.131E+01 0.655E+01   -.234E+01 -.120E+01 -.657E+01   0.199E+00 -.116E+00 0.168E-01   0.532E-02 0.278E-02 -.499E-03
   0.397E+01 -.567E+00 0.696E+01   -.424E+01 0.645E+00 -.697E+01   0.268E+00 -.894E-01 0.291E-02   0.471E-02 0.275E-02 -.426E-03
   0.525E+01 0.425E+01 0.783E+01   -.590E+01 -.471E+01 -.785E+01   0.656E+00 0.470E+00 0.212E-01   0.318E-02 0.433E-03 -.176E-03
   0.121E+02 -.170E+01 0.790E+01   -.135E+02 0.135E+01 -.794E+01   0.147E+01 0.353E+00 0.381E-01   0.112E-02 0.167E-03 -.813E-04
   -.227E+01 0.260E+02 0.706E+01   0.227E+01 -.324E+02 -.698E+01   0.860E-03 0.635E+01 -.779E-01   0.746E-03 -.565E-03 0.103E-03
   0.214E+00 0.163E+00 0.911E+01   -.300E+00 -.241E+00 -.924E+01   0.774E-01 0.750E-01 0.131E+00   0.126E-03 -.160E-02 0.139E-03
   -.536E+01 0.337E+01 0.710E+01   0.603E+01 -.389E+01 -.709E+01   -.672E+00 0.529E+00 -.350E-02   -.331E-02 -.125E-02 -.254E-03
   -.111E+02 -.162E+01 0.670E+01   0.125E+02 0.109E+01 -.673E+01   -.138E+01 0.537E+00 0.248E-01   -.222E-02 -.199E-02 -.287E-03
   -.198E+01 0.468E+01 0.678E+01   0.255E+01 -.443E+01 -.679E+01   -.552E+00 -.252E+00 0.130E-02   -.301E-02 -.309E-03 -.377E-03
   -.248E+01 0.930E+00 0.636E+01   0.281E+01 -.816E+00 -.637E+01   -.324E+00 -.109E+00 0.163E-01   -.212E-02 -.135E-02 -.389E-03
   0.129E+01 0.515E+01 0.876E+01   -.113E+01 -.498E+01 -.878E+01   -.166E+00 -.186E+00 0.229E-01   -.278E-02 0.705E-03 -.274E-03
   -.278E+01 0.673E+01 0.101E+02   0.336E+01 -.647E+01 -.102E+02   -.578E+00 -.262E+00 0.917E-01   -.386E-02 -.107E-02 -.378E-03
   0.658E+00 0.675E+01 0.738E+01   -.775E+00 -.632E+01 -.741E+01   0.104E+00 -.452E+00 0.279E-01   0.333E-02 0.846E-03 -.460E-03
   0.622E+00 0.641E+01 0.574E+01   -.682E+00 -.571E+01 -.534E+01   0.686E-01 -.701E+00 -.397E+00   0.388E-02 -.240E-02 -.842E-03
   0.178E+01 0.496E+01 0.848E+01   -.243E+01 -.452E+01 -.849E+01   0.632E+00 -.465E+00 0.134E-01   0.372E-02 0.697E-03 -.298E-03
   0.582E+01 0.504E+01 0.971E+01   -.661E+01 -.463E+01 -.978E+01   0.789E+00 -.417E+00 0.686E-01   0.378E-02 -.182E-02 -.381E-03
   0.218E+02 -.916E+01 0.748E+01   -.271E+02 0.123E+02 -.747E+01   0.534E+01 -.312E+01 -.177E-01   0.108E-02 -.101E-02 0.113E-03
   0.534E+01 -.586E+01 0.772E+01   -.573E+01 0.721E+01 -.773E+01   0.381E+00 -.135E+01 0.146E-01   -.489E-04 -.918E-03 0.105E-03
   -.234E+02 -.114E+02 0.598E+01   0.288E+02 0.144E+02 -.596E+01   -.541E+01 -.303E+01 -.181E-01   -.229E-02 -.216E-02 -.145E-03
   -.689E+01 -.620E+01 0.597E+01   0.722E+01 0.755E+01 -.599E+01   -.327E+00 -.136E+01 0.174E-01   -.170E-02 -.140E-02 -.289E-03
   0.451E+00 -.543E+00 0.511E+01   0.181E+00 0.876E+00 -.509E+01   -.616E+00 -.306E+00 -.301E-01   -.137E-02 -.279E-02 -.497E-03
   0.181E+01 0.327E+01 0.546E+01   -.167E+01 -.306E+01 -.550E+01   -.152E+00 -.192E+00 0.249E-01   -.385E-03 -.442E-02 -.592E-03
   0.349E+01 0.959E+01 0.702E+01   -.310E+01 -.953E+01 -.699E+01   -.405E+00 -.558E-01 -.326E-01   -.319E-02 -.196E-02 -.322E-03
   0.107E+02 0.569E+01 0.587E+01   -.104E+02 -.553E+01 -.598E+01   -.289E+00 -.154E+00 0.115E+00   -.291E-02 -.313E-02 -.408E-03
   -.137E+01 0.180E+02 0.122E+02   0.163E+01 -.170E+02 -.124E+02   -.279E+00 -.999E+00 0.227E+00   -.374E-03 -.503E-03 -.797E-03
   -.843E+01 0.346E+02 0.258E+02   0.146E+02 -.310E+02 -.249E+02   -.622E+01 -.355E+01 -.836E+00   -.273E-02 -.319E-02 -.280E-02
   0.223E+01 0.175E+02 0.109E+02   -.265E+01 -.164E+02 -.111E+02   0.439E+00 -.110E+01 0.207E+00   0.488E-02 -.280E-02 -.985E-03
   0.872E+01 0.334E+02 0.229E+02   -.150E+02 -.297E+02 -.219E+02   0.632E+01 -.367E+01 -.923E+00   0.591E-02 -.543E-02 -.304E-02
   -.314E+01 0.642E+01 0.788E+01   0.236E+01 -.608E+01 -.783E+01   0.792E+00 -.310E+00 -.539E-01   0.957E-03 -.282E-02 -.117E-03
   -.982E+01 0.533E+01 0.756E+01   0.946E+01 -.502E+01 -.770E+01   0.363E+00 -.308E+00 0.133E+00   0.130E-02 -.465E-02 -.331E-03
   -.145E+01 -.563E+01 0.664E+01   0.139E+01 0.645E+01 -.662E+01   0.517E-01 -.810E+00 -.180E-01   -.103E-02 -.210E-02 -.957E-04
   -.329E+01 0.435E+00 0.743E+01   0.324E+01 0.728E-01 -.746E+01   0.476E-01 -.502E+00 0.358E-01   -.166E-02 -.548E-02 -.230E-03
   -.460E+00 -.189E+01 0.630E+01   0.561E+00 0.207E+01 -.632E+01   -.973E-01 -.174E+00 0.104E-01   -.159E-02 -.531E-02 -.527E-03
   -.153E+00 -.128E+01 0.627E+01   0.176E+00 0.137E+01 -.629E+01   -.248E-01 -.102E+00 0.146E-01   -.261E-03 -.260E-02 -.563E-03
   0.493E+01 -.778E+00 0.400E+01   -.476E+01 0.848E+00 -.397E+01   -.152E+00 -.530E-01 -.365E-01   -.807E-03 -.261E-02 -.543E-03
   0.431E+01 0.146E+00 0.398E+01   -.425E+01 -.145E+00 -.395E+01   -.606E-01 -.102E-01 -.362E-01   0.124E-02 0.199E-03 -.605E-03
   0.255E+02 0.819E+01 0.136E+02   -.246E+02 -.867E+01 -.142E+02   -.889E+00 0.491E+00 0.552E+00   -.116E-02 -.168E-02 -.913E-03
   0.256E+02 -.732E+01 0.140E+02   -.247E+02 0.772E+01 -.146E+02   -.862E+00 -.406E+00 0.550E+00   -.111E-02 0.515E-02 -.990E-03
   -.245E+02 0.725E+01 0.134E+02   0.235E+02 -.761E+01 -.139E+02   0.961E+00 0.388E+00 0.496E+00   0.305E-02 -.426E-02 -.123E-02
   -.239E+02 -.780E+01 0.135E+02   0.230E+02 0.825E+01 -.140E+02   0.866E+00 -.467E+00 0.520E+00   0.104E-02 0.961E-03 -.126E-02
   -.454E+01 -.161E+01 0.663E+01   0.437E+01 0.178E+01 -.659E+01   0.182E+00 -.166E+00 -.302E-01   -.799E-04 -.494E-02 -.177E-03
   -.480E+01 -.151E+01 0.662E+01   0.469E+01 0.161E+01 -.659E+01   0.118E+00 -.113E+00 -.260E-01   -.135E-02 -.306E-02 -.214E-03
   -.335E+01 -.521E+01 0.738E+01   0.330E+01 0.525E+01 -.742E+01   0.522E-01 -.390E-01 0.375E-01   -.160E-02 -.240E-02 -.316E-03
   -.161E+01 -.283E+01 0.658E+01   0.154E+01 0.286E+01 -.657E+01   0.586E-01 -.377E-01 -.168E-01   -.779E-03 -.386E-03 -.328E-03
   0.401E+01 -.457E+01 0.545E+01   -.393E+01 0.456E+01 -.548E+01   -.700E-01 0.582E-02 0.270E-01   0.268E-02 -.515E-03 -.665E-03
   0.268E+01 -.265E+01 0.516E+01   -.268E+01 0.261E+01 -.515E+01   0.162E-01 0.442E-01 -.220E-01   0.349E-02 0.764E-03 -.635E-03
   0.122E+02 -.589E+01 0.624E+01   -.120E+02 0.567E+01 -.637E+01   -.224E+00 0.203E+00 0.124E+00   0.109E-02 0.354E-02 -.515E-03
   0.416E+01 -.792E+01 0.700E+01   -.408E+01 0.779E+01 -.697E+01   -.997E-01 0.127E+00 -.333E-01   0.409E-02 0.356E-02 -.410E-03
   -.795E+01 -.338E+02 0.256E+02   0.142E+02 0.300E+02 -.247E+02   -.627E+01 0.375E+01 -.885E+00   -.374E-02 0.904E-02 -.295E-02
   -.128E+01 -.133E+02 0.121E+02   0.154E+01 0.120E+02 -.124E+02   -.275E+00 0.131E+01 0.220E+00   -.103E-02 0.674E-02 -.811E-03
   0.679E+01 -.336E+02 0.227E+02   -.130E+02 0.300E+02 -.217E+02   0.621E+01 0.368E+01 -.969E+00   0.253E-02 0.608E-02 -.301E-02
   0.144E+01 -.160E+02 0.111E+02   -.155E+01 0.149E+02 -.114E+02   0.124E+00 0.117E+01 0.234E+00   -.181E-02 0.526E-02 -.103E-02
   -.121E+02 -.673E+01 0.772E+01   0.118E+02 0.662E+01 -.785E+01   0.290E+00 0.107E+00 0.132E+00   -.107E-02 -.420E-03 -.419E-03
   -.505E+01 -.948E+01 0.793E+01   0.489E+01 0.945E+01 -.789E+01   0.167E+00 0.310E-01 -.383E-01   -.407E-02 0.100E-02 -.348E-03
   -.206E+01 -.280E+01 0.792E+01   0.202E+01 0.282E+01 -.794E+01   0.321E-01 -.300E-01 0.290E-01   -.322E-02 0.241E-03 -.238E-03
   -.234E+01 -.355E+01 0.771E+01   0.246E+01 0.358E+01 -.772E+01   -.128E+00 -.332E-01 0.658E-02   -.324E-02 0.128E-02 -.265E-03
   0.356E+00 -.191E+01 0.606E+01   -.390E+00 0.194E+01 -.609E+01   0.365E-01 -.319E-01 0.238E-01   0.163E-02 0.640E-03 -.520E-03
   0.496E+00 -.183E+01 0.597E+01   -.602E+00 0.188E+01 -.595E+01   0.119E+00 -.489E-01 -.160E-01   0.212E-02 0.197E-02 -.464E-03
   0.336E+01 -.210E+01 0.643E+01   -.339E+01 0.196E+01 -.645E+01   0.461E-01 0.133E+00 0.186E-01   0.544E-02 0.258E-02 -.524E-03
   0.530E+01 -.165E+01 0.680E+01   -.577E+01 0.145E+01 -.681E+01   0.461E+00 0.190E+00 0.470E-02   0.651E-02 0.292E-02 -.481E-03
   0.966E+00 -.415E+01 0.101E+02   -.472E+00 0.322E+01 -.101E+02   -.513E+00 0.912E+00 0.707E-01   0.271E-02 0.403E-02 -.203E-03
   0.668E+01 0.551E+01 0.867E+01   -.765E+01 -.662E+01 -.868E+01   0.955E+00 0.113E+01 0.189E-01   0.173E-02 0.399E-03 -.965E-05
   -.287E+01 -.382E+01 0.594E+01   0.290E+01 0.248E+01 -.551E+01   -.129E-01 0.133E+01 -.427E+00   -.230E-02 0.607E-02 -.742E-03
   -.402E+01 0.371E+01 0.686E+01   0.506E+01 -.508E+01 -.685E+01   -.105E+01 0.139E+01 -.384E-02   -.860E-03 0.591E-03 -.159E-03
   0.304E-01 -.590E+01 0.985E+01   -.448E+00 0.548E+01 -.992E+01   0.415E+00 0.425E+00 0.721E-01   -.405E-02 0.346E-02 -.536E-03
   -.563E+01 -.258E+01 0.844E+01   0.600E+01 0.219E+01 -.846E+01   -.357E+00 0.406E+00 0.172E-01   -.619E-02 0.118E-02 -.390E-03
   -.111E+01 0.221E+01 -.626E+03   0.127E+01 -.212E+01 0.608E+03   -.173E+00 -.864E-01 0.180E+02   0.150E-02 0.328E-02 -.559E-02
   -.279E-01 0.350E+00 -.175E+02   0.382E-13 0.781E-12 -.114E-12   0.246E-01 -.346E+00 0.175E+02   0.667E-06 0.306E-03 -.451E-01

 POSITION                                       TOTAL-FORCE (eV/Angst)
      0.00088      0.00004      7.46449        -0.020467      0.005750     -0.001904
     -0.00491      1.42113      7.46588         0.006064     -0.022292     -0.001537
      2.48079      0.02665      7.46312        -0.008751      0.011786     -0.000954
      2.47905      1.44717      7.47370         0.002028      0.000088      0.001182
      4.95289      0.02772      7.46615         0.014530     -0.000996     -0.005085
      4.95959      1.44682      7.47569        -0.003765     -0.007850     -0.002656
     -0.00049     12.75288      7.46559         0.008577      0.014838     -0.002659
      7.44361      1.41628      7.46471         0.008664     -0.003870     -0.000697
      2.47854     12.74120      7.47470         0.004002      0.012414      0.005510
      9.91003      1.39338      7.46356        -0.007831     -0.005985      0.003411
      4.95444     12.72636      7.47551        -0.004206      0.005802     -0.000674
     12.36691      1.38926      7.46589        -0.005725      0.000770     -0.004310
     13.60499      2.11241      7.46735         0.016670     -0.001706     -0.004773
     -1.25102      3.52833      7.47744         0.000906      0.000597     -0.001832
      1.23573      2.14451      7.47541        -0.000777     -0.014214      0.001568
      1.23512      3.56767      7.50098        -0.001760     -0.009164     -0.000163
      3.71911      2.17188      7.49103        -0.010570     -0.020027     -0.002341
      3.71719      3.59006      7.53823         0.012981      0.003847     -0.004678
      6.20443      2.14485      7.47590        -0.016307     -0.019752     -0.001839
      6.19989      3.56628      7.50080         0.000473     -0.004744     -0.002065
      8.68813      2.10494      7.46378         0.004644      0.001756      0.002488
      8.69005      3.52028      7.47095        -0.011050     -0.003547      0.005538
     11.13291      2.09618      7.46443        -0.004908      0.003864     -0.002108
     11.13540      3.51591      7.46651         0.001843     -0.012550     -0.004360
     12.37300      4.22869      7.47496         0.014004      0.024786     -0.005730
     -2.48936      5.65649      7.48170        -0.007778      0.010553     -0.005623
     -0.01632      4.24590      7.49999        -0.021757     -0.009221      0.003089
     -0.04166      5.66150      7.52575         0.005585     -0.000331      0.002521
      2.47296      4.30977      7.55105        -0.003791     -0.016376      0.005351
      2.42510      5.72222      7.64090         0.011212     -0.008920      0.005681
      4.96192      4.30973      7.55406         0.011624     -0.013528      0.005760
      5.00821      5.72171      7.64646         0.012173     -0.018774      0.009606
      7.45120      4.23726      7.49461         0.011542      0.019568      0.005220
      7.47557      5.65675      7.51777        -0.000851      0.002822     -0.000133
      9.91426      4.23969      7.46873        -0.006206      0.004756      0.000423
      9.92023      5.65979      7.47380        -0.000316     -0.001076      0.000521
     -3.71157      6.37466      7.47416         0.001861     -0.001351     -0.006066
     -3.71216      7.79668      7.47420        -0.001381     -0.016926     -0.005353
     -1.26925      6.37313      7.50460         0.014522      0.012802     -0.001221
     -1.26728      7.79836      7.50451         0.000465     -0.008019     -0.003907
      1.17922      6.36901      7.57898        -0.007400      0.007494      0.006438
      1.18020      7.80634      7.57831         0.006788      0.007076      0.006861
      6.25600      6.36631      7.57745        -0.018918      0.012592      0.002085
      6.25399      7.80462      7.57743        -0.012365     -0.005529      0.001223
      8.69936      6.37444      7.49326         0.006732     -0.001010      0.003952
      8.69964      7.79614      7.49322         0.007916     -0.018035      0.003771
     -4.93809      8.51108      7.47385         0.000844     -0.002690      0.000886
     -4.94415      9.93659      7.46863        -0.008453     -0.007915     -0.000951
     -2.48595      8.51197      7.48171         0.013787     -0.008508     -0.006069
     -2.47931      9.93642      7.47478         0.015140      0.006081     -0.006398
     -0.03906      8.51436      7.52492         0.016148     -0.007729     -0.001112
     -0.01188      9.93265      7.49982        -0.013976      0.004561      0.000199
      2.42650      8.45329      7.64182         0.017474      0.025172      0.013715
      2.47249      9.86812      7.55092        -0.003005      0.019870      0.009090
      5.00482      8.45393      7.64768        -0.006659     -0.008749      0.003381
      4.95726      9.86768      7.55358        -0.001077      0.003642      0.004102
      7.47161      8.51086      7.51764        -0.023414     -0.002831      0.000754
      7.44616      9.92765      7.49449         0.002699      0.009558      0.002095
     -6.17884     10.64490      7.47045        -0.015810     -0.007448      0.002297
     -6.18368     12.06454      7.46295        -0.011828     -0.001927     -0.000722
     -3.71215     10.65018      7.46620         0.004505     -0.003980     -0.004445
     -3.71246     12.07225      7.46427         0.014424      0.004184     -0.003193
     -1.24546     10.64349      7.47726         0.016146      0.005005     -0.003540
     -1.24073     12.06465      7.46727        -0.002304     -0.003676     -0.006164
      1.24317     10.61423      7.50110        -0.015690     -0.007835     -0.000332
      1.24257     12.04269      7.47558         0.000787      0.023950      0.002771
      3.70953     10.59184      7.53765         0.017254     -0.013532     -0.001596
      3.71308     12.01515      7.49173        -0.016000      0.025228      0.000983
      6.19405     10.60560      7.50059        -0.009414      0.007544     -0.004773
      6.19157     12.03088      7.47585         0.003427      0.017243     -0.003113
      3.71302      7.08855      8.32146        -0.003931      0.006614     -0.007395
    total drift:                               -0.003345      0.003824     -0.022659

  FREE ENERGIE OF THE ION-ELECTRON SYSTEM (eV)
  free  energy   TOTEN  =      -653.39312556 eV

  energy  without entropy=     -653.36504748  energy(sigma->0) =     -653.37908652

 d Force = 0.7155628E-03[ 0.189E-03, 0.124E-02]  d Energy = 0.6950908E-03 0.205E-04
 d Force =-0.3847871E+00[-0.389E+00,-0.381E+00]  d Ewald  =-0.9367634E+01 0.898E+01

 Conjugate gradient step on ions:
 trial-energy change:   -0.000695  1 .order   -0.000748   -0.001351   -0.000144
  (g-gl).g = 0.165E-02      g.g   = 0.168E-02  gl.gl    = 0.373E-02
 g(Force)  = 0.151E-02   g(Stress)= 0.175E-03 ortho     = 0.232E-04
 gamma     =   0.44293
 trial     =   0.79842
 opt step  =   0.93604  (harmonic =   0.89396) maximal distance =0.00201370
 next E    =  -653.393138   (d E  =  -0.00071)

 reached required accuracy - stopping structural energy minimisation