 vasp.5.4.4.18Apr17-6-g9f103f2a35 (build Jan 14 2022 15:04:31) complex

 executed on             LinuxIFC date 2023.04.05  11:31:16

 INCAR:
 POTCAR:    PAW_PBE C 08Apr2002
 POTCAR:    PAW_PBE N 08Apr2002
 POTCAR:    PAW_PBE Ge_d 03Jul2007
 POTCAR:    PAW_PBE C 08Apr2002
   VRHFIN =C: s2p2

   TITEL  = PAW_PBE C 08Apr2002
   POMASS =   12.011; ZVAL   =    4.000    mass and valenz
   ENMAX  =  400.000; ENMIN  =  300.000 eV

   TITEL  = PAW_PBE N 08Apr2002
   POMASS =   14.001; ZVAL   =    5.000    mass and valenz
   ENMAX  =  400.000; ENMIN  =  300.000 eV

   TITEL  = PAW_PBE Ge_d 03Jul2007
   POMASS =   72.610; ZVAL   =   14.000    mass and valenz
   ENMAX  =  310.294; ENMIN  =  232.720 eV

  PAW_PBE C 08Apr2002                   :
  PAW_PBE N 08Apr2002                   :
  PAW_PBE Ge_d 03Jul2007                :

 POSCAR: POSCAR-c3n4
  positions in cartesian coordinates
 exchange correlation table for  LEXCH =        8
   RHO(1)=    0.500       N(1)  =     2000
   RHO(2)=  100.500       N(2)  =     4000

 VTST: version 3.2, (02/03/18)

 CHAIN: initializing optimizer

 OPT: Using VASP Dynamics algorithm
 CHAIN: Read ICHAIN            0

 POSCAR: POSCAR-c3n4
  positions in cartesian coordinates

 ion  position               nearest neighbor table
   1  0.106  0.214  0.426-  26 1.34  46 1.34  25 1.41
   2  0.288  0.399  0.433-  29 1.32  35 1.39  25 1.43
   3  0.104  0.392  0.427-  44 1.32  39 1.38  25 1.43
   4  0.447  0.064  0.506-  30 1.32  27 1.34  48 1.41
   5  0.453  0.401  0.413-  28 1.33  29 1.34  56 1.43
   6  0.112  0.053  0.449-  26 1.32  31 1.33  32 1.40
   7  0.096  0.712  0.484-  54 1.33  34 1.36  33 1.40
   8  0.284  0.890  0.501-  27 1.34  37 1.35  33 1.42
   9  0.109  0.895  0.498-  31 1.33  52 1.34  33 1.43
  10  0.448  0.548  0.502-  38 1.32  56 1.35  35 1.36
  11  0.445  0.885  0.489-  37 1.34  36 1.34  48 1.38
  12  0.087  0.542  0.481-  34 1.32  40 1.35  39 1.36
  13  0.616  0.223  0.473-  42 1.35  30 1.35  41 1.40
  14  0.780  0.390  0.400-  45 1.35  51 1.36  41 1.40
  15  0.610  0.394  0.435-  28 1.34  55 1.34  41 1.45
  16  0.940  0.052  0.461-  46 1.32  43 1.33  32 1.40
  17  0.941  0.387  0.394-  45 1.32  44 1.34  40 1.42
  18  0.623  0.066  0.512-  42 1.33  47 1.34  48 1.41
  19  0.613  0.711  0.531-  50 1.33  38 1.37  49 1.41
  20  0.790  0.897  0.523-  43 1.33  53 1.34  49 1.45
  21  0.609  0.892  0.521-  47 1.34  36 1.35  49 1.44
  22  0.938  0.563  0.421-  51 1.31  54 1.35  40 1.42
  23  0.954  0.902  0.535-  52 1.34  53 1.34  32 1.40
  24  0.621  0.555  0.490-  55 1.32  50 1.33  56 1.41
  25  0.167  0.335  0.425-   1 1.41   3 1.43   2 1.43
  26  0.165  0.161  0.421-   6 1.32   1 1.34
  27  0.336  0.002  0.522-   8 1.34   4 1.34
  28  0.512  0.352  0.392-   5 1.33  15 1.34
  29  0.345  0.361  0.390-   2 1.32   5 1.34
  30  0.506  0.177  0.493-   4 1.32  13 1.35
  31  0.159  0.988  0.447-   9 1.33   6 1.33
  32  0.002  0.002  0.483-  16 1.40  23 1.40   6 1.40
  33  0.165  0.831  0.500-   7 1.40   8 1.42   9 1.43
  34  0.134  0.645  0.518-  12 1.32   7 1.36
  35  0.334  0.491  0.492-  10 1.36   2 1.39  57 2.06
  36  0.503  0.831  0.490-  11 1.34  21 1.35
  37  0.333  0.829  0.479-  11 1.34   8 1.35
  38  0.499  0.648  0.545-  10 1.32  19 1.37
  39  0.142  0.484  0.485-  12 1.36   3 1.38  57 2.08
  40  0.988  0.496  0.436-  12 1.35  22 1.42  17 1.42
  41  0.667  0.330  0.429-  13 1.40  14 1.40  15 1.45
  42  0.680  0.178  0.495-  18 1.33  13 1.35
  43  0.827  0.986  0.468-  20 1.33  16 1.33
  44  0.011  0.348  0.379-   3 1.32  17 1.34
  45  0.830  0.330  0.380-  17 1.32  14 1.35
  46  0.993  0.161  0.435-  16 1.32   1 1.34
  47  0.669  0.005  0.539-  21 1.34  18 1.34
  48  0.505  0.004  0.498-  11 1.38  18 1.41   4 1.41
  49  0.668  0.832  0.534-  19 1.41  21 1.44  20 1.45
  50  0.675  0.666  0.512-  19 1.33  24 1.33
  51  0.832  0.507  0.396-  22 1.31  14 1.36
  52  0.016  0.853  0.549-  23 1.34   9 1.34
  53  0.849  0.860  0.566-  20 1.34  23 1.34
  54  0.004  0.677  0.435-   7 1.33  22 1.35
  55  0.668  0.491  0.484-  24 1.32  15 1.34
  56  0.506  0.502  0.467-  10 1.35  24 1.41   5 1.43
  57  0.287  0.593  0.558-  35 2.06  39 2.08

IMPORTANT INFORMATION: All symmetrisations will be switched off!
NOSYMM: (Re-)initialisation of all symmetry stuff for point group C_1.

 KPOINTS: K-Points

Automatic generation of k-mesh.
Space group operators:
 irot       det(A)        alpha          n_x          n_y          n_z        tau_x        tau_y        tau_z
    1     1.000000     0.000000     1.000000     0.000000     0.000000     0.000000     0.000000     0.000000

 Subroutine IBZKPT returns following result:

 Found      5 irreducible k-points:

 Following reciprocal coordinates:
            Coordinates               Weight
  0.000000  0.000000  0.000000      1.000000
  0.333333  0.000000  0.000000      2.000000
  0.000000  0.333333  0.000000      2.000000
  0.333333  0.333333  0.000000      2.000000
 -0.333333  0.333333  0.000000      2.000000

 Following cartesian coordinates:
            Coordinates               Weight
  0.000000  0.000000  0.000000      1.000000
  0.024277  0.014368  0.000000      2.000000
  0.000396  0.028736  0.000000      2.000000
  0.024673  0.043104  0.000000      2.000000
 -0.023881  0.014368  0.000000      2.000000

 TETIRR: Found     24 inequivalent tetrahedra from       54

 SYSTEM =  unknown system
 POSCAR =  POSCAR-c3n4

 Startparameter for this run:
   NWRITE =      2    write-flag & timer
   PREC   = normal    normal or accurate (medium, high low for compatibility)
   ISTART =      0    job   : 0-new  1-cont  2-samecut
   ICHARG =      2    charge: 1-file 2-atom 10-const
   ISPIN  =      2    spin polarized calculation?
   LNONCOLLINEAR =      F non collinear calculations
   LSORBIT =      F    spin-orbit coupling
   INIWAV =      1    electr: 0-lowe 1-rand  2-diag
   LASPH  =      F    aspherical Exc in radial PAW
   METAGGA=      F    non-selfconsistent MetaGGA calc.

 Electronic Relaxation 1
   ENCUT  =  440.0 eV  32.34 Ry    5.69 a.u.  23.68 23.24 25.66*2*pi/ulx,y,z
   ENINI  =  440.0     initial cutoff
   ENAUG  =  644.9 eV  augmentation charge cutoff
   NELM   =    100;   NELMIN=  2; NELMDL= -5     # of ELM steps
   EDIFF  = 0.1E-03   stopping-criterion for ELM
   LREAL  =      F    real-space projection
   NLSPLINE    = F    spline interpolate recip. space projectors
   LCOMPAT=      F    compatible to vasp.4.4
   GGA_COMPAT  = T    GGA compatible to vasp.4.4-vasp.4.6
   LMAXPAW     = -100 max onsite density
   LMAXMIX     =    2 max onsite mixed and CHGCAR
   VOSKOWN=      0    Vosko Wilk Nusair interpolation
   ROPT   =    0.00000   0.00000   0.00000
 Ionic relaxation
   EDIFFG = -.1E-01   stopping-criterion for IOM
   NSW    =      0    number of steps for IOM
   NBLOCK =      1;   KBLOCK =      1    inner block; outer block
   IBRION =     -1    ionic relax: 0-MD 1-quasi-New 2-CG
   NFREE  =      0    steps in history (QN), initial steepest desc. (CG)
   ISIF   =      2    stress and relaxation
   IWAVPR =     10    prediction:  0-non 1-charg 2-wave 3-comb
   ISYM   =      0    0-nonsym 1-usesym 2-fastsym
   LCORR  =      T    Harris-Foulkes like correction to forces

   POTIM  = 0.5000    time-step for ionic-motion
   TEIN   =    0.0    initial temperature
   TEBEG  =    0.0;   TEEND  =   0.0 temperature during run
   SMASS  =  -3.00    Nose mass-parameter (am)
   estimated Nose-frequenzy (Omega)   =  0.10E-29 period in steps =****** mass=  -0.438E-26a.u.
   SCALEE = 1.0000    scale energy and forces
   NPACO  =    256;   APACO  = 16.0  distance and # of slots for P.C.
   PSTRESS=    0.0 pullay stress

  Mass of Ions in am
   POMASS =  12.01 14.00 72.61
  Ionic Valenz
   ZVAL   =   4.00  5.00 14.00
  Atomic Wigner-Seitz radii
  virtual crystal weights
   VCA    =   1.00  1.00  1.00
   NELECT =     270.0000    total number of electrons
   NUPDOWN=      -1.0000    fix difference up-down

 DOS related values:
   EMIN   = -14.00;   EMAX   =  6.00  energy-range for DOS
   EFERMI =   0.00
   ISMEAR =    -5;   SIGMA  =   0.20  broadening in eV -4-tet -1-fermi 0-gaus

 Electronic relaxation 2 (details)
   IALGO  =     38    algorithm
   LDIAG  =      T    sub-space diagonalisation (order eigenvalues)
   LSUBROT=      F    optimize rotation matrix (better conditioning)
   TURBO    =      0    0=normal 1=particle mesh
   IRESTART =      0    0=no restart 2=restart with 2 vectors
   NREBOOT  =      0    no. of reboots
   NMIN     =      0    reboot dimension
   EREF     =   0.00    reference energy to select bands
   IMIX   =      4    mixing-type and parameters
     AMIX     =   0.25;   BMIX     =  0.00
     AMIX_MAG =   1.00;   BMIX_MAG =  0.00
     AMIN     =   0.10
     WC   =   100.;   INIMIX=   1;  MIXPRE=   1;  MAXMIX= -45

 Intra band minimization:
   WEIMIN = 0.0000     energy-eigenvalue tresh-hold
   EBREAK =  0.15E-06  absolut break condition
   DEPER  =   0.30     relativ break condition

   TIME   =   0.40     timestep for ELM

  volume/ion in A,a.u.               =      42.26       285.17
  Fermi-wavevector in a.u.,A,eV,Ry     =   0.789346  1.491648  8.477342  0.623067
  Thomas-Fermi vector in A             =   1.894469

 Write flags
   LWAVE        =      F    write WAVECAR
   LDOWNSAMPLE  =      F    k-point downsampling of WAVECAR
   LCHARG       =      F    write CHGCAR
   LVTOT        =      F    write LOCPOT, total local potential
   LVHAR        =      F    write LOCPOT, Hartree potential only
   LELF         =      F    write electronic localiz. function (ELF)
   LORBIT       =     11    0 simple, 1 ext, 2 COOP (PROOUT), +10 PAW based schemes

 Dipole corrections
   LMONO  =      F    monopole corrections only (constant potential shift)
   LDIPOL =      F    correct potential (dipole corrections)
   IDIPOL =      0    1-x, 2-y, 3-z, 4-all directions
   EPSILON=  1.0000000 bulk dielectric constant

 Exchange correlation treatment:
   GGA     =    --    GGA type
   VOSKOWN=      0    Vosko Wilk Nusair interpolation
   LHFCALC =     F    Hartree Fock is set to
   LHFONE  =     F    Hartree Fock one center treatment
   AEXX    =    0.0000 exact exchange contribution

 Linear response parameters
   LEPSILON=     F    determine dielectric tensor
   LRPA    =     F    only Hartree local field effects (RPA)
   LNABLA  =     F    use nabla operator in PAW spheres
   LVEL    =     F    velocity operator in full k-point grid
   LINTERFAST=   F  fast interpolation
   KINTER  =     0    interpolate to denser k-point grid
   CSHIFT  =0.1000    complex shift for real part using Kramers Kronig
   OMEGAMAX=  -1.0    maximum frequency
   DEG_THRESHOLD= 0.2000000E-02 threshold for treating states as degnerate
   RTIME   =   -0.100 relaxation time in fs
  (WPLASMAI=    0.000 imaginary part of plasma frequency in eV, 0.658/RTIME)
   DFIELD  = 0.0000000 0.0000000 0.0000000 field for delta impulse in time

 Orbital magnetization related:
   ORBITALMAG=     F  switch on orbital magnetization
   LCHIMAG   =     F  perturbation theory with respect to B field
   DQ        =  0.001000  dq finite difference perturbation B field
   LLRAUG    =     F  two centre corrections for induced B field

 Static calculation
[...]
  Kinetic  4545.72819  4609.36620  5044.03731    11.99636   -34.56343   -15.81346
  Fock        0.00000     0.00000     0.00000     0.00000     0.00000     0.00000
  vdW        -0.77956    -1.21334    -0.09257    -0.04908     0.08575     0.07170
  Total      -3.10607    -4.41480    -7.32353    -0.21057    -0.14960     0.08718
  in kB      -2.06602    -2.93654    -4.87130    -0.14006    -0.09951     0.05799

 VOLUME and BASIS-vectors are now :
  energy-cutoff  :      440.00
  volume of cell :     2408.72
      direct lattice vectors                 reciprocal lattice vectors
    13.843424235 -0.190740474  0.000000000     0.072830369  0.043104114  0.000000000
    -6.921712117 11.695190994  0.000000000     0.001187813  0.086208229  0.000000000
     0.000000000  0.000000000 15.000000000     0.000000000  0.000000000  0.066666667

  length of vectors
    13.844738223 13.589981274 15.000000000     0.084629944  0.086216411  0.066666667

 FORCES acting on ions
    electron-ion (+dipol)            ewald-force                    non-local-force                 convergence-correction
   -.513E+01 0.683E+01 0.112E+03   0.537E+01 -.103E+02 -.110E+03   -.225E+00 0.342E+01 -.177E+01   -.366E-01 -.657E-02 0.198E-03
   0.195E+01 0.275E+02 0.120E+03   0.104E+01 -.275E+02 -.120E+03   -.286E+01 0.128E+00 0.143E+00   -.599E-01 -.918E-02 -.257E-02
   -.145E+02 0.297E+02 0.119E+03   0.119E+02 -.297E+02 -.119E+03   0.263E+01 0.572E-01 0.515E+00   -.632E-01 -.467E-03 -.231E-02
   0.650E+02 -.528E+02 -.819E+02   -.676E+02 0.542E+02 0.821E+02   0.259E+01 -.138E+01 -.220E+00   0.768E-02 -.238E-02 -.390E-02
   -.129E+02 0.502E+02 0.188E+03   0.134E+02 -.528E+02 -.190E+03   -.455E+00 0.270E+01 0.154E+01   0.205E-02 -.230E-01 -.196E-01
   -.606E+02 -.172E+02 0.904E+02   0.631E+02 0.185E+02 -.914E+02   -.263E+01 -.127E+01 0.963E+00   0.236E-03 -.928E-02 -.142E-02
   0.378E+02 -.274E+02 -.325E+02   -.382E+02 0.249E+02 0.317E+02   0.467E+00 0.249E+01 0.814E+00   0.244E-02 -.233E-01 -.700E-02
   0.253E+02 -.138E+02 -.463E+02   -.224E+02 0.156E+02 0.459E+02   -.279E+01 -.175E+01 0.376E+00   0.434E-02 -.562E-02 -.205E-02
   -.887E+01 0.810E-01 -.564E+02   0.571E+01 0.152E+01 0.562E+02   0.307E+01 -.154E+01 0.243E+00   0.385E-02 -.810E-02 -.219E-02
   -.226E+02 0.171E+02 -.679E+02   0.217E+02 -.153E+02 0.689E+02   0.101E+01 -.172E+01 -.110E+01   -.364E-01 0.315E-01 0.220E-01
   -.325E+01 0.207E+02 0.450E+02   0.322E+01 -.236E+02 -.443E+02   0.595E-01 0.295E+01 -.632E+00   -.112E-01 0.300E-02 0.224E-02
   0.302E+02 0.158E+02 -.614E+02   -.290E+02 -.137E+02 0.622E+02   -.118E+01 -.207E+01 -.793E+00   -.199E-01 -.191E-01 -.176E-01
   -.375E+01 -.170E+02 -.133E+02   0.384E+01 0.135E+02 0.139E+02   -.951E-01 0.335E+01 -.635E+00   0.340E-01 -.152E-01 -.711E-03
   0.374E+02 0.279E+02 0.182E+03   -.346E+02 -.265E+02 -.181E+03   -.282E+01 -.143E+01 -.622E+00   0.656E-01 0.848E-03 -.600E-02
   -.137E+02 0.222E+02 0.821E+02   0.107E+02 -.207E+02 -.815E+02   0.294E+01 -.134E+01 -.527E+00   0.627E-01 -.263E-01 -.665E-02
   0.628E+02 -.160E+02 0.622E+02   -.654E+02 0.174E+02 -.627E+02   0.265E+01 -.133E+01 0.489E+00   -.100E-01 0.124E-01 -.224E-02
   0.220E+01 0.714E+02 0.202E+03   -.227E+01 -.739E+02 -.204E+03   0.313E-01 0.264E+01 0.156E+01   -.903E-02 0.437E-02 0.129E-01
   -.621E+02 -.559E+02 -.930E+02   0.647E+02 0.572E+02 0.934E+02   -.258E+01 -.138E+01 -.407E+00   0.352E-03 0.170E-01 -.760E-02
   -.314E+02 -.268E+02 -.134E+03   0.316E+02 0.243E+02 0.133E+03   -.202E+00 0.246E+01 0.889E+00   -.422E-02 0.298E-01 0.684E-02
   0.121E+02 -.140E+01 -.103E+03   -.895E+01 0.290E+01 0.103E+03   -.310E+01 -.147E+01 0.487E+00   0.960E-02 0.223E-01 -.216E-02
   -.280E+02 -.971E+01 -.844E+02   0.251E+02 0.116E+02 0.836E+02   0.280E+01 -.184E+01 0.828E+00   -.184E-01 0.245E-01 -.216E-02
   0.685E+02 -.671E+02 0.130E+03   -.711E+02 0.689E+02 -.131E+03   0.261E+01 -.182E+01 0.924E-01   0.190E-01 -.358E-01 0.901E-03
   -.101E+02 0.414E+02 -.178E+03   0.101E+02 -.445E+02 0.179E+03   -.337E-01 0.315E+01 -.134E+01   0.922E-02 -.209E-02 0.237E-03
   -.798E+02 -.246E+02 -.570E+02   0.825E+02 0.254E+02 0.580E+02   -.286E+01 -.790E+00 -.102E+01   0.260E-01 0.317E-01 0.146E-01
   -.134E+02 0.346E+02 0.159E+03   0.139E+02 -.357E+02 -.162E+03   -.338E+00 0.960E+00 0.255E+01   -.122E+00 -.969E-02 -.208E-02
   -.188E+03 -.321E+02 0.213E+03   0.219E+03 0.487E+02 -.225E+03   -.306E+02 -.166E+02 0.122E+02   -.262E-01 -.330E-01 0.108E-03
   0.152E+03 -.147E+03 -.226E+03   -.182E+03 0.164E+03 0.237E+03   0.303E+02 -.160E+02 -.110E+02   0.131E-01 -.153E-01 -.614E-02
   0.482E+01 0.166E+03 0.375E+03   -.233E+01 -.194E+03 -.398E+03   -.260E+01 0.286E+02 0.223E+02   0.452E-01 -.633E-01 -.443E-01
   -.346E+02 0.135E+03 0.397E+03   0.321E+02 -.161E+03 -.422E+03   0.248E+01 0.266E+02 0.249E+02   -.409E-01 -.499E-01 -.467E-01
   0.187E+03 -.958E+02 -.107E+03   -.217E+03 0.116E+03 0.107E+03   0.294E+02 -.198E+02 -.123E+00   0.432E-01 -.351E-01 0.193E-02
   -.142E+03 -.778E+02 0.241E+03   0.172E+03 0.871E+02 -.261E+03   -.297E+02 -.925E+01 0.195E+02   -.814E-03 -.180E-01 0.530E-02
   -.434E+01 -.168E+01 -.230E+02   0.453E+01 0.165E+01 0.240E+02   -.186E+00 0.737E-02 -.103E+01   0.167E-02 0.152E-02 -.242E-02
   0.148E+02 -.212E+02 -.920E+02   -.151E+02 0.219E+02 0.960E+02   0.212E+00 -.714E+00 -.407E+01   0.605E-02 -.219E-01 -.738E-02
   -.370E+01 -.591E+02 -.289E+03   0.251E+02 0.722E+02 0.312E+03   -.214E+02 -.131E+02 -.229E+02   -.149E-01 -.182E-01 -.209E-01
   0.101E+02 0.639E+02 -.724E+02   -.293E+02 -.598E+02 0.828E+02   0.192E+02 -.416E+01 -.105E+02   -.682E-01 0.260E-01 0.269E-01
   -.154E+02 0.112E+03 0.118E+03   0.183E+02 -.145E+03 -.128E+03   -.290E+01 0.335E+02 0.992E+01   -.232E-01 0.231E-01 0.387E-02
   -.465E+00 0.109E+03 0.131E+03   -.158E+01 -.142E+03 -.142E+03   0.204E+01 0.333E+02 0.100E+02   -.153E-01 -.131E-02 0.445E-02
   0.414E+02 -.579E+02 -.316E+03   -.672E+02 0.715E+02 0.334E+03   0.257E+02 -.137E+02 -.175E+02   -.247E-01 0.349E-01 0.163E-01
   -.368E+01 0.730E+02 -.102E+03   0.213E+02 -.695E+02 0.117E+03   -.175E+02 -.357E+01 -.142E+02   -.555E-01 -.254E-01 -.294E-01
   0.468E+02 0.173E+02 0.715E+02   -.509E+02 -.202E+02 -.711E+02   0.420E+01 0.292E+01 -.418E+00   -.848E-02 -.425E-01 -.167E-01
   0.137E+02 0.373E+02 0.141E+03   -.157E+02 -.388E+02 -.146E+03   0.192E+01 0.164E+01 0.420E+01   0.125E+00 -.282E-01 -.113E-01
   -.185E+03 -.101E+03 -.116E+03   0.215E+03 0.120E+03 0.117E+03   -.299E+02 -.191E+02 -.806E+00   -.623E-04 0.100E-01 -.155E-01
   0.146E+03 -.664E+02 0.187E+03   -.176E+03 0.752E+02 -.204E+03   0.308E+02 -.889E+01 0.167E+02   0.362E-03 0.229E-01 -.669E-03
   0.971E+01 0.156E+03 0.410E+03   -.482E+01 -.183E+03 -.433E+03   -.481E+01 0.275E+02 0.230E+02   -.403E-01 0.393E-01 0.451E-01
   0.266E+01 0.228E+03 0.341E+03   -.429E+01 -.261E+03 -.352E+03   0.160E+01 0.338E+02 0.108E+02   0.185E-01 0.568E-01 0.284E-01
   0.190E+03 -.335E+02 0.129E+03   -.221E+03 0.512E+02 -.135E+03   0.312E+02 -.177E+02 0.585E+01   -.190E-01 0.219E-01 -.198E-02
   -.138E+03 -.152E+03 -.277E+03   0.167E+03 0.168E+03 0.292E+03   -.289E+02 -.158E+02 -.142E+02   -.140E-01 0.219E-01 -.103E-01
   0.759E+00 -.310E+02 -.120E+02   -.650E+00 0.322E+02 0.974E+01   -.136E+00 -.120E+01 0.229E+01   0.733E-03 0.130E-01 -.979E-03
   -.142E+02 -.242E+02 -.179E+03   0.141E+02 0.261E+02 0.185E+03   0.132E+00 -.197E+01 -.544E+01   -.584E-02 0.326E-01 0.369E-04
   -.217E+03 -.634E+02 -.880E+02   0.247E+03 0.817E+02 0.888E+02   -.303E+02 -.184E+02 -.812E+00   0.188E-01 0.485E-01 0.145E-01
   0.172E+03 -.142E+03 0.290E+03   -.203E+03 0.158E+03 -.297E+03   0.309E+02 -.158E+02 0.687E+01   0.859E-01 -.463E-01 0.227E-02
   -.261E+00 0.144E+03 -.365E+03   0.483E+01 -.172E+03 0.388E+03   -.458E+01 0.282E+02 -.227E+02   0.135E-01 -.140E-02 -.949E-02
   -.334E+02 0.111E+03 -.410E+03   0.318E+02 -.137E+03 0.436E+03   0.155E+01 0.262E+02 -.260E+02   0.153E-01 0.181E-01 -.220E-02
   0.181E+03 -.123E+03 0.224E+03   -.205E+03 0.146E+03 -.237E+03   0.240E+02 -.227E+02 0.125E+02   0.288E-01 -.368E-01 0.611E-02
   -.163E+03 -.709E+02 -.176E+03   0.195E+03 0.796E+02 0.191E+03   -.319E+02 -.885E+01 -.142E+02   0.865E-01 0.389E-02 0.184E-01
   -.439E+02 0.200E+02 0.423E+02   0.469E+02 -.223E+02 -.445E+02   -.296E+01 0.221E+01 0.219E+01   -.553E-02 0.321E-01 0.177E-01
   0.442E+02 -.110E+03 -.944E+03   -.452E+02 0.126E+03 0.963E+03   0.113E+01 -.159E+02 -.189E+02   -.158E+00 0.547E-04 -.903E-02
   0.292E+01 -.441E+01 -.730E+00   -.711E-13 -.142E-13 0.682E-12   -.277E+01 0.447E+01 0.805E+00   -.162E+00 -.486E-01 -.727E-01

 POSITION                                       TOTAL-FORCE (eV/Angst)
     -0.01495      2.47699      6.39696        -0.017571      0.032053      0.039085
      1.22061      4.60761      6.49737         0.022789      0.128664      0.057030
     -1.27489      4.56206      6.40931        -0.052726      0.098017      0.040216
      5.75068      0.66128      7.58541        -0.018800     -0.019308      0.007111
      3.48805      4.60636      6.18788         0.039461      0.038750      0.018976
      1.18590      0.59543      6.73022        -0.000373      0.040131     -0.014029
     -3.59341      8.30755      7.25852         0.001994      0.034924      0.004002
     -2.22453     10.35523      7.51802         0.041629     -0.010689      0.003685
     -4.68285     10.45070      7.47188        -0.021948      0.012753     -0.019704
      2.40585      6.32670      7.52856         0.041288      0.057397      0.001658
      0.03941     10.26764      7.33455         0.018534     -0.023854     -0.003462
     -2.54918      6.32344      7.21007        -0.058201      0.023430     -0.030225
      6.98656      2.48965      7.09057         0.035803     -0.081427      0.033697
      8.10388      4.40859      5.99824        -0.037695      0.003782      0.007299
      5.72032      4.49526      6.53192         0.045219      0.069425      0.063928
     12.64413      0.43243      6.91050        -0.008931      0.033890     -0.012091
     10.34732      4.34110      5.90820        -0.040252      0.059744      0.021036
      8.16753      0.64819      7.68048         0.045352     -0.041952      0.036075
      3.56657      8.20047      7.96873         0.003849      0.092308     -0.010273
      4.72355     10.34312      7.84320         0.005432      0.020397     -0.005666
      2.25927     10.32151      7.81991         0.012840     -0.016864      0.003187
      9.09379      6.40348      6.30764         0.025805     -0.015286      0.011240
      6.97018     10.36374      8.01997        -0.008098      0.015420     -0.001785
      4.76183      6.36829      7.34790        -0.039266      0.101536      0.017121
     -0.01435      3.89139      6.37543         0.019120     -0.114037      0.029574
      1.16637      1.85116      6.31428         0.021256     -0.039628      0.002953
      4.64257     -0.04301      7.83236         0.013108      0.030439      0.004547
      4.64479      4.02457      5.88579        -0.060458      0.000872     -0.002190
      2.27509      4.15324      5.84629        -0.013099      0.006677     -0.027935
      5.77672      1.97050      7.39728        -0.002962      0.005397     -0.012614
     -4.64277     11.52713      6.69985         0.007404     -0.019362     -0.000110
      0.01683      0.02139      7.24263         0.010026     -0.024388      0.020726
     -3.47178      9.68532      7.50389        -0.009586     -0.039302     -0.011854
     -2.61124      7.52097      7.76682         0.003162      0.004856      0.005083
      1.22005      5.68059      7.37326        -0.036084     -0.128261     -0.083649
      1.21120      9.62023      7.34585        -0.020652     -0.003855     -0.020797
     -1.12951      9.63562      7.19061        -0.025135      0.009788     -0.008086
      2.42268      7.48367      8.17251        -0.046843     -0.054780      0.016372
     -1.38554      5.62930      7.27674         0.057054     -0.108711     -0.046622
     10.24991      5.61177      6.53982         0.048385     -0.018943     -0.018629
      6.95338      3.73392      6.43977         0.009123      0.061486     -0.028886
      8.17718      1.95234      7.42857        -0.032447      0.060557     -0.028302
      4.62494     11.37631      7.01774        -0.005554     -0.014217      0.008757
     -2.25756      4.06900      5.68204         0.048558      0.002710     -0.030376
      9.21137      3.70294      5.69293        -0.003746      0.024220      0.024642
     12.63146      1.69375      6.52696        -0.009956     -0.029404     -0.000452
      9.22312     -0.06625      8.09221        -0.025804      0.045753     -0.010159
      6.96196     -0.05088      7.47464        -0.025574      0.011654     -0.014363
      3.49083      9.60616      8.01299        -0.005578     -0.044792     -0.017515
      4.74286      7.65450      7.68697         0.026067     -0.069946     -0.009749
      8.01229      5.76687      5.93620        -0.011437     -0.051631     -0.004683
     -5.68485      9.97292      8.23016         0.002553     -0.010081      0.002720
      5.80678      9.89078      8.49075         0.015706     -0.006222      0.005635
     -4.62910      7.91992      6.51832         0.009459     -0.004394     -0.003434
      5.84044      5.61826      7.25731         0.026443     -0.114369     -0.049101
      3.52672      5.77216      7.00742        -0.034820     -0.060499     -0.014294
     -0.13394      6.87917      8.36692         0.016176      0.039172      0.054682
    total drift:                               -0.005289      0.002953      0.002350

  FREE ENERGIE OF THE ION-ELECTRON SYSTEM (eV)
  free  energy   TOTEN  =      -481.62959457 eV

  energy  without entropy=     -481.62959457  energy(sigma->0) =     -481.62959457

 stress matrix after NEB project (eV)
     -3.10607     -0.21057      0.08718
     -0.21057     -4.41480     -0.14960
      0.08718     -0.14960     -7.32353
  FORCES: max atom, RMS     0.157322    0.066210
  FORCE total and by dimension    0.499872    0.128664
  Stress total and by dimension    9.106089    7.323530

 total charge

[...]

 magnetization (x)

# of ion       s       p       d       tot
    1       -0.000  -0.000   0.000  -0.000
    2        0.000   0.001   0.000   0.001
    3       -0.000  -0.001   0.000  -0.001
    4       -0.000  -0.000   0.000  -0.000
    5        0.000   0.001   0.000   0.001
    6       -0.000  -0.000   0.000  -0.000
    7       -0.000  -0.000   0.000  -0.000
    8       -0.000  -0.000   0.000  -0.000
    9       -0.000  -0.000   0.000  -0.000
   10       -0.000  -0.000   0.000  -0.000
   11        0.000   0.000   0.000   0.000
   12        0.000   0.000   0.000   0.000
   13       -0.000  -0.000   0.000  -0.000
   14       -0.000  -0.001   0.000  -0.001
   15        0.000   0.001   0.000   0.001
   16        0.000   0.000   0.000   0.000
   17       -0.000  -0.001   0.000  -0.001
   18       -0.000  -0.000   0.000  -0.000
   19        0.000   0.000   0.000   0.000
   20        0.000   0.000   0.000   0.000
   21        0.000   0.000   0.000   0.000
   22       -0.000  -0.000   0.000  -0.000
   23        0.000   0.000   0.000   0.000
   24        0.000   0.000   0.000   0.000
   25        0.000   0.000   0.000   0.000
   26        0.000   0.000   0.000   0.000
   27        0.000  -0.000   0.000  -0.000
   28       -0.000  -0.000   0.000  -0.000
   29       -0.000  -0.000   0.000  -0.000
   30       -0.000  -0.000   0.000  -0.000
   31        0.000  -0.000   0.000  -0.000
   32       -0.000  -0.000   0.000  -0.000
   33        0.000   0.000   0.000   0.000
   34       -0.000  -0.000   0.000  -0.000
   35        0.000   0.000   0.000   0.000
   36        0.000  -0.000   0.000  -0.000
   37       -0.000  -0.000   0.000  -0.000
   38        0.000   0.000   0.000   0.000
   39        0.000  -0.000   0.000  -0.000
   40       -0.000  -0.000   0.000  -0.000
   41        0.000   0.000   0.000   0.000
   42        0.000  -0.000   0.000   0.000
   43        0.000   0.000   0.000   0.000
   44        0.000   0.000   0.000   0.000
   45       -0.000   0.000   0.000   0.000
   46        0.000   0.000   0.000   0.000
   47        0.000   0.000   0.000   0.000
   48       -0.000  -0.000   0.000  -0.000
   49       -0.000   0.000   0.000  -0.000
   50        0.000  -0.000   0.000  -0.000
   51       -0.000  -0.000   0.000  -0.000
   52       -0.000  -0.000   0.000  -0.000
   53        0.000   0.000   0.000   0.000
   54        0.000   0.000   0.000   0.000
   55        0.000   0.000   0.000   0.000
   56        0.000   0.000   0.000   0.000
   57        0.000   0.000   0.000   0.000
tot         -0.000  -0.000   0.000  -0.000

 BZINTS: Fermi energy: -2.255814;270.000000 electrons
         Band energy:***********;  BLOECHL correction:  0.000000