 vasp.5.4.4.18Apr17-6-g9f103f2a35 (build Jan 14 2022 15:04:31) complex

 executed on             LinuxIFC date 2023.01.27  22:54:35

 INCAR:
 POTCAR:    PAW_PBE C 08Apr2002
 POTCAR:    PAW_PBE N 08Apr2002
 POTCAR:    PAW_PBE C 08Apr2002
 POTCAR:    PAW_PBE Cr_pv 02Aug2007
 POTCAR:    PAW_PBE C 08Apr2002
 POTCAR:    PAW_PBE O 08Apr2002
 POTCAR:    PAW_PBE C 08Apr2002
   VRHFIN =C: s2p2

   TITEL  = PAW_PBE C 08Apr2002
   POMASS =   12.011; ZVAL   =    4.000    mass and valenz
   ENMAX  =  400.000; ENMIN  =  300.000 eV

[...]

   TITEL  = PAW_PBE Cr_pv 02Aug2007
   POMASS =   51.996; ZVAL   =   12.000    mass and valenz
   ENMAX  =  265.681; ENMIN  =  199.261 eV

[...]

   TITEL  = PAW_PBE O 08Apr2002
   POMASS =   16.000; ZVAL   =    6.000    mass and valenz
   ENMAX  =  400.000; ENMIN  =  300.000 eV

  PAW_PBE C 08Apr2002                   :
  PAW_PBE N 08Apr2002                   :
  PAW_PBE C 08Apr2002                   :
  PAW_PBE Cr_pv 02Aug2007               :
  PAW_PBE C 08Apr2002                   :
  PAW_PBE O 08Apr2002                   :

 POSCAR: POSCAR-clean
  positions in cartesian coordinates
 exchange correlation table for  LEXCH =        8
   RHO(1)=    0.500       N(1)  =     2000
   RHO(2)=  100.500       N(2)  =     4000

 VTST: version 3.2, (02/03/18)

 CHAIN: initializing optimizer

 OPT: Using VASP Dynamics algorithm
 CHAIN: Read ICHAIN            0

 POSCAR: POSCAR-clean
  positions in cartesian coordinates

 ion  position               nearest neighbor table
   1  1.000  0.999  0.484-  60 1.42   2 1.43  70 1.43
   2  0.056  0.111  0.484-  13 1.42   1 1.43  15 1.43
   3  0.168  0.002  0.484-   4 1.42  62 1.42  60 1.43
   4  0.223  0.113  0.484-   3 1.42  15 1.42  17 1.44
   5  0.334  0.002  0.484-   6 1.42  62 1.43  64 1.43
   6  0.390  0.113  0.484-   5 1.42  19 1.43  17 1.43
   7  0.500  1.000  0.484-  64 1.42   8 1.42  66 1.43
   8  0.556  0.112  0.484-  21 1.42   7 1.42  19 1.43
   9  0.666  0.998  0.484-  10 1.42  66 1.43  68 1.43
  10  0.722  0.109  0.483-   9 1.42  23 1.42  21 1.43
  11  0.832  0.997  0.484-  12 1.42  70 1.43  68 1.43
  12  0.888  0.109  0.484-  11 1.42  23 1.43  13 1.43
  13  0.999  0.165  0.484-  14 1.42   2 1.42  12 1.43
  14  0.054  0.277  0.484-  13 1.42  27 1.42  25 1.43
  15  0.167  0.168  0.484-  16 1.42   4 1.42   2 1.43
  16  0.223  0.279  0.486-  15 1.42  27 1.43  29 1.44
  17  0.335  0.170  0.485-  18 1.42   6 1.43   4 1.44
  18  0.391  0.282  0.488-  17 1.42  29 1.43  31 1.44
  19  0.501  0.169  0.484-   6 1.43  20 1.43   8 1.43
  20  0.557  0.280  0.486-  33 1.42  19 1.43  31 1.45
  21  0.667  0.166  0.483-  22 1.42   8 1.42  10 1.43
  22  0.723  0.277  0.484-  21 1.42  35 1.42  33 1.43
  23  0.833  0.165  0.484-  24 1.42  10 1.42  12 1.43
  24  0.888  0.277  0.484-  25 1.42  23 1.42  35 1.42
  25  0.999  0.332  0.484-  26 1.42  24 1.42  14 1.43
  26  0.054  0.444  0.485-  39 1.42  37 1.42  25 1.42
  27  0.165  0.333  0.486-  28 1.42  14 1.42  16 1.43
  28  0.219  0.444  0.488-  41 1.41  27 1.42  39 1.42
  29  0.335  0.337  0.489-  30 1.41  18 1.43  16 1.44
  30  0.388  0.448  0.495-  41 1.41  29 1.41  71 1.98
  31  0.503  0.339  0.490-  32 1.42  18 1.44  20 1.45
  32  0.562  0.451  0.496-  43 1.41  31 1.42  71 2.00
  33  0.668  0.333  0.486-  34 1.42  20 1.42  22 1.43
  34  0.725  0.444  0.487-  43 1.40  33 1.42  45 1.42
  35  0.834  0.333  0.484-  22 1.42  24 1.42  36 1.43
  36  0.890  0.445  0.484-  37 1.41  45 1.42  35 1.43
  37  1.000  0.500  0.484-  36 1.41  38 1.42  26 1.42
  38  0.055  0.611  0.484-  37 1.42  49 1.42  47 1.42
  39  0.165  0.500  0.486-  26 1.42  40 1.42  28 1.42
  40  0.220  0.611  0.486-  49 1.42  39 1.42  51 1.42
  41  0.329  0.499  0.491-  30 1.41  28 1.41  42 1.43
  42  0.385  0.612  0.491-  53 1.41  51 1.41  41 1.43
  43  0.672  0.500  0.491-  34 1.40  32 1.41  44 1.43
  44  0.728  0.613  0.492-  57 1.39  55 1.40  43 1.43
  45  0.835  0.501  0.485-  46 1.42  34 1.42  36 1.42
  46  0.891  0.612  0.485-  57 1.40  47 1.41  45 1.42
  47  0.001  0.668  0.484-  46 1.41  48 1.42  38 1.42
  48  0.057  0.779  0.484-  47 1.42  61 1.42  59 1.42
  49  0.166  0.667  0.485-  40 1.42  50 1.42  38 1.42
  50  0.222  0.779  0.484-  49 1.42  61 1.42  63 1.42
  51  0.331  0.667  0.488-  42 1.41  52 1.42  40 1.42
  52  0.388  0.778  0.486-  51 1.42  63 1.43  65 1.43
  53  0.495  0.663  0.495-  42 1.41  54 1.41  71 1.98
  54  0.553  0.773  0.489-  53 1.41  67 1.44  65 1.45
  55  0.669  0.662  0.497-  44 1.40  56 1.42  71 2.02
  56  0.720  0.773  0.490-  55 1.42  67 1.43  69 1.44
  57  0.837  0.667  0.487-  44 1.39  46 1.40  58 1.40
  58  0.890  0.777  0.485-  57 1.40  69 1.42  59 1.42
  59  0.001  0.833  0.484-  48 1.42  58 1.42  60 1.42
  60  0.056  0.945  0.484-   1 1.42  59 1.42   3 1.43
  61  0.167  0.835  0.484-  48 1.42  62 1.42  50 1.42
  62  0.223  0.946  0.484-  61 1.42   3 1.42   5 1.43
  63  0.333  0.834  0.484-  64 1.42  50 1.42  52 1.43
  64  0.389  0.946  0.484-  63 1.42   7 1.42   5 1.43
  65  0.499  0.832  0.486-  66 1.42  52 1.43  54 1.45
  66  0.555  0.943  0.484-  65 1.42   9 1.43   7 1.43
  67  0.665  0.829  0.488-  68 1.42  56 1.43  54 1.44
  68  0.721  0.941  0.485-  67 1.42  11 1.43   9 1.43
  69  0.832  0.830  0.486-  58 1.42  70 1.43  56 1.44
  70  0.888  0.942  0.484-  11 1.43   1 1.43  69 1.43
  71  0.525  0.555  0.541-  30 1.98  53 1.98  32 2.00  55 2.02
  72  0.525  0.555  0.939-  73 1.16
  73  0.475  0.499  0.996-  72 1.16

IMPORTANT INFORMATION: All symmetrisations will be switched off!
NOSYMM: (Re-)initialisation of all symmetry stuff for point group C_1.

 KPOINTS: K-Points

Automatic generation of k-mesh.
Space group operators:
 irot       det(A)        alpha          n_x          n_y          n_z        tau_x        tau_y        tau_z
    1     1.000000     0.000001     1.000000     0.000000     0.000000     0.000000     0.000000     0.000000

 Subroutine IBZKPT returns following result:

 Found      5 irreducible k-points:

 Following reciprocal coordinates:
            Coordinates               Weight
  0.000000  0.000000  0.000000      1.000000
  0.333333  0.000000  0.000000      2.000000
  0.000000  0.333333  0.000000      2.000000
  0.333333  0.333333  0.000000      2.000000
 -0.333333  0.333333  0.000000      2.000000

 Following cartesian coordinates:
            Coordinates               Weight
  0.000000  0.000000  0.000000      1.000000
  0.022421  0.013071  0.000000      2.000000
 -0.000006  0.026142  0.000000      2.000000
  0.022415  0.039213  0.000000      2.000000
 -0.022427  0.013071  0.000000      2.000000

 TETIRR: Found     24 inequivalent tetrahedra from       54

 SYSTEM =  unknown system
 POSCAR =  POSCAR-clean

 Startparameter for this run:
   NWRITE =      2    write-flag & timer
   PREC   = normal    normal or accurate (medium, high low for compatibility)
   ISTART =      0    job   : 0-new  1-cont  2-samecut
   ICHARG =      2    charge: 1-file 2-atom 10-const
   ISPIN  =      2    spin polarized calculation?
   LNONCOLLINEAR =      F non collinear calculations
   LSORBIT =      F    spin-orbit coupling
   INIWAV =      1    electr: 0-lowe 1-rand  2-diag
   LASPH  =      F    aspherical Exc in radial PAW
   METAGGA=      F    non-selfconsistent MetaGGA calc.

 Electronic Relaxation 1
   ENCUT  =  440.0 eV  32.34 Ry    5.69 a.u.  25.42 25.24 25.66*2*pi/ulx,y,z
   ENINI  =  440.0     initial cutoff
   ENAUG  =  644.9 eV  augmentation charge cutoff
   NELM   =    100;   NELMIN=  2; NELMDL= -5     # of ELM steps
   EDIFF  = 0.1E-03   stopping-criterion for ELM
   LREAL  =      F    real-space projection
   NLSPLINE    = F    spline interpolate recip. space projectors
   LCOMPAT=      F    compatible to vasp.4.4
   GGA_COMPAT  = T    GGA compatible to vasp.4.4-vasp.4.6
   LMAXPAW     = -100 max onsite density
   LMAXMIX     =    2 max onsite mixed and CHGCAR
   VOSKOWN=      0    Vosko Wilk Nusair interpolation
   ROPT   =    0.00000   0.00000   0.00000   0.00000
   ROPT   =    0.00000   0.00000
 Ionic relaxation
   EDIFFG = -.1E-01   stopping-criterion for IOM
   NSW    =      0    number of steps for IOM
   NBLOCK =      1;   KBLOCK =      1    inner block; outer block
   IBRION =     -1    ionic relax: 0-MD 1-quasi-New 2-CG
   NFREE  =      0    steps in history (QN), initial steepest desc. (CG)
   ISIF   =      2    stress and relaxation
   IWAVPR =     10    prediction:  0-non 1-charg 2-wave 3-comb
   ISYM   =      0    0-nonsym 1-usesym 2-fastsym
   LCORR  =      T    Harris-Foulkes like correction to forces

   POTIM  = 0.5000    time-step for ionic-motion
   TEIN   =    0.0    initial temperature
   TEBEG  =    0.0;   TEEND  =   0.0 temperature during run
   SMASS  =  -3.00    Nose mass-parameter (am)
   estimated Nose-frequenzy (Omega)   =  0.10E-29 period in steps =****** mass=  -0.505E-26a.u.
   SCALEE = 1.0000    scale energy and forces
   NPACO  =    256;   APACO  = 16.0  distance and # of slots for P.C.
   PSTRESS=    0.0 pullay stress

  Mass of Ions in am
   POMASS =  12.01 14.00 12.01 52.00 12.01 16.00
  Ionic Valenz
   ZVAL   =   4.00  5.00  4.00 12.00  4.00  6.00
  Atomic Wigner-Seitz radii
  virtual crystal weights
   VCA    =   1.00  1.00  1.00  1.00  1.00  1.00
   NELECT =     303.0000    total number of electrons
   NUPDOWN=      -1.0000    fix difference up-down

 DOS related values:
   EMIN   = -14.00;   EMAX   =  6.00  energy-range for DOS
   EFERMI =   0.00
   ISMEAR =    -5;   SIGMA  =   0.20  broadening in eV -4-tet -1-fermi 0-gaus

 Electronic relaxation 2 (details)
   IALGO  =     38    algorithm
   LDIAG  =      T    sub-space diagonalisation (order eigenvalues)
   LSUBROT=      F    optimize rotation matrix (better conditioning)
   TURBO    =      0    0=normal 1=particle mesh
   IRESTART =      0    0=no restart 2=restart with 2 vectors
   NREBOOT  =      0    no. of reboots
   NMIN     =      0    reboot dimension
   EREF     =   0.00    reference energy to select bands
   IMIX   =      4    mixing-type and parameters
     AMIX     =   0.25;   BMIX     =  0.00
     AMIX_MAG =   1.00;   BMIX_MAG =  0.00
     AMIN     =   0.10
     WC   =   100.;   INIMIX=   1;  MIXPRE=   1;  MAXMIX= -45

 Intra band minimization:
   WEIMIN = 0.0000     energy-eigenvalue tresh-hold
   EBREAK =  0.13E-06  absolut break condition
   DEPER  =   0.30     relativ break condition

   TIME   =   0.40     timestep for ELM

  volume/ion in A,a.u.               =      38.95       262.82
  Fermi-wavevector in a.u.,A,eV,Ry     =   0.776175  1.466758  8.196799  0.602448
  Thomas-Fermi vector in A             =   1.878597

 Write flags
   LWAVE        =      F    write WAVECAR
   LDOWNSAMPLE  =      F    k-point downsampling of WAVECAR
   LCHARG       =      F    write CHGCAR
   LVTOT        =      F    write LOCPOT, total local potential
   LVHAR        =      F    write LOCPOT, Hartree potential only
   LELF         =      F    write electronic localiz. function (ELF)
   LORBIT       =     11    0 simple, 1 ext, 2 COOP (PROOUT), +10 PAW based schemes

 Dipole corrections
   LMONO  =      F    monopole corrections only (constant potential shift)
   LDIPOL =      F    correct potential (dipole corrections)
   IDIPOL =      0    1-x, 2-y, 3-z, 4-all directions
[...]
   0.204E+01 0.516E+01 0.598E+01   -.195E+01 -.526E+01 -.596E+01   -.786E-01 0.844E-01 -.197E-01   -.445E-02 -.394E-03 -.324E-02
   0.411E+01 0.495E+01 0.654E+01   -.388E+01 -.506E+01 -.658E+01   -.199E+00 0.104E+00 0.430E-01   -.567E-02 -.106E-02 -.381E-02
   0.679E+01 0.118E+02 0.678E+01   -.659E+01 -.118E+02 -.676E+01   -.233E+00 0.210E-01 -.205E-01   -.137E-01 -.847E-02 -.778E-02
   0.154E+02 0.819E+01 0.496E+01   -.151E+02 -.810E+01 -.500E+01   -.243E+00 -.988E-01 0.817E-01   -.249E-01 -.792E-02 -.116E-01
   0.128E+01 0.228E+02 0.147E+02   -.964E+00 -.219E+02 -.149E+02   -.332E+00 -.893E+00 0.243E+00   -.175E-01 -.473E-01 -.254E-01
   -.339E+01 0.398E+02 0.301E+02   0.978E+01 -.362E+02 -.292E+02   -.613E+01 -.335E+01 -.888E+00   -.118E+00 -.135E+00 -.870E-01
   0.210E+00 0.213E+02 0.122E+02   -.651E+00 -.203E+02 -.124E+02   0.412E+00 -.103E+01 0.208E+00   0.214E-01 -.474E-01 -.246E-01
   0.572E+01 0.383E+02 0.218E+02   -.127E+02 -.345E+02 -.206E+02   0.669E+01 -.353E+01 -.116E+01   0.123E+00 -.128E+00 -.827E-01
   -.646E+01 0.150E+02 0.848E+01   0.621E+01 -.155E+02 -.843E+01   0.248E+00 0.467E+00 -.540E-01   0.131E-01 -.635E-02 -.735E-02
   -.151E+02 0.173E+02 0.103E+02   0.146E+02 -.179E+02 -.104E+02   0.441E+00 0.574E+00 0.121E+00   0.241E-01 -.579E-02 -.107E-01
   -.354E+01 0.565E+01 0.663E+01   0.356E+01 -.589E+01 -.662E+01   -.237E-01 0.240E+00 -.158E-01   0.241E-02 0.883E-03 -.318E-02
   -.525E+01 0.805E+01 0.722E+01   0.571E+01 -.843E+01 -.725E+01   -.467E+00 0.393E+00 0.261E-01   0.194E-02 0.744E-03 -.367E-02
   -.351E+01 0.252E+01 0.661E+01   0.373E+01 -.266E+01 -.663E+01   -.230E+00 0.148E+00 0.158E-01   -.294E-02 0.455E-03 -.336E-02
   -.358E+01 -.861E+00 0.632E+01   0.414E+01 0.558E+00 -.633E+01   -.555E+00 0.278E+00 0.629E-02   -.474E-02 0.293E-02 -.340E-02
   0.775E+01 0.169E+01 0.442E+01   -.758E+01 -.169E+01 -.435E+01   -.156E+00 -.903E-02 -.589E-01   -.134E-01 -.702E-03 -.658E-02
   0.785E+01 -.195E+01 0.463E+01   -.765E+01 0.192E+01 -.457E+01   -.203E+00 0.265E-01 -.514E-01   -.141E-01 0.177E-02 -.659E-02
   0.300E+02 0.109E+02 0.151E+02   -.292E+02 -.113E+02 -.159E+02   -.736E+00 0.509E+00 0.796E+00   -.784E-01 -.283E-01 -.381E-01
   0.299E+02 -.114E+02 0.158E+02   -.292E+02 0.118E+02 -.165E+02   -.708E+00 -.503E+00 0.737E+00   -.776E-01 0.303E-01 -.380E-01
   -.190E+02 0.172E+02 0.144E+02   0.175E+02 -.190E+02 -.148E+02   0.150E+01 0.181E+01 0.441E+00   0.763E-01 -.262E-01 -.355E-01
   -.190E+01 0.494E+01 0.963E+01   -.466E+01 -.759E+01 -.945E+01   0.660E+01 0.255E+01 -.121E+00   0.775E-01 0.276E-01 -.358E-01
   -.147E+02 0.107E+02 0.760E+01   0.149E+02 -.120E+02 -.760E+01   -.175E+00 0.135E+01 -.736E-02   0.120E-01 0.311E-02 -.617E-02
   -.315E+02 0.118E+02 0.788E+01   0.368E+02 -.149E+02 -.793E+01   -.527E+01 0.311E+01 0.486E-01   0.130E-01 0.295E-02 -.589E-02
   -.151E+02 -.293E+01 0.676E+01   0.163E+02 0.338E+01 -.678E+01   -.125E+01 -.452E+00 0.200E-01   0.228E-03 0.342E-02 -.357E-02
   -.935E+01 -.888E+01 0.603E+01   0.100E+02 0.935E+01 -.603E+01   -.662E+00 -.436E+00 -.341E-02   0.157E-02 -.159E-03 -.311E-02
   0.291E+01 -.370E+01 0.627E+01   -.262E+01 0.374E+01 -.630E+01   -.279E+00 -.458E-01 0.313E-01   -.643E-02 0.260E-02 -.389E-02
   0.270E+00 -.532E+01 0.606E+01   -.398E-01 0.537E+01 -.604E+01   -.220E+00 -.360E-01 -.187E-01   -.725E-02 0.169E-02 -.326E-02
   0.151E+02 -.835E+01 0.594E+01   -.148E+02 0.823E+01 -.598E+01   -.248E+00 0.110E+00 0.791E-01   -.239E-01 0.764E-02 -.117E-01
   0.613E+01 -.128E+02 0.720E+01   -.589E+01 0.128E+02 -.718E+01   -.243E+00 0.194E-01 -.239E-01   -.140E-01 0.823E-02 -.767E-02
   -.333E+01 -.395E+02 0.315E+02   0.972E+01 0.358E+02 -.307E+02   -.612E+01 0.346E+01 -.763E+00   -.119E+00 0.133E+00 -.864E-01
   0.170E+01 -.240E+02 0.141E+02   -.145E+01 0.231E+02 -.143E+02   -.212E+00 0.950E+00 0.200E+00   -.201E-01 0.452E-01 -.252E-01
   0.162E+02 -.338E+02 0.132E+02   -.244E+02 0.296E+02 -.118E+02   0.795E+01 0.397E+01 -.133E+01   0.124E+00 0.126E+00 -.804E-01
   0.699E+01 -.240E+02 0.121E+02   -.809E+01 0.232E+02 -.122E+02   0.108E+01 0.941E+00 0.126E+00   0.239E-01 0.501E-01 -.248E-01
   -.182E+02 -.110E+02 0.142E+02   0.177E+02 0.106E+02 -.147E+02   0.411E+00 0.319E+00 0.582E+00   0.335E-01 0.113E-01 -.133E-01
   -.544E+01 -.387E+02 0.988E+01   0.510E+01 0.449E+02 -.990E+01   0.381E+00 -.625E+01 0.198E-01   0.155E-01 0.819E-02 -.738E-02
   -.723E+01 -.143E+02 0.734E+01   0.819E+01 0.153E+02 -.736E+01   -.971E+00 -.949E+00 0.126E-01   0.563E-02 -.332E-02 -.385E-02
   -.479E+01 -.715E+01 0.757E+01   0.486E+01 0.785E+01 -.757E+01   -.389E-01 -.681E+00 0.563E-02   0.336E-02 -.435E-02 -.317E-02
   -.321E+01 -.487E+01 0.650E+01   0.361E+01 0.514E+01 -.653E+01   -.376E+00 -.255E+00 0.318E-01   -.439E-02 -.146E-02 -.263E-02
   -.183E+01 -.284E+01 0.650E+01   0.192E+01 0.302E+01 -.649E+01   -.821E-01 -.204E+00 -.116E-01   -.164E-02 -.329E-02 -.272E-02
   0.274E+01 -.471E+01 0.704E+01   -.255E+01 0.473E+01 -.706E+01   -.162E+00 -.468E-01 0.232E-01   -.869E-02 0.185E-02 -.398E-02
   0.176E+01 -.488E+01 0.737E+01   -.173E+01 0.496E+01 -.738E+01   -.252E-01 -.417E-01 0.997E-02   -.435E-02 0.179E-04 -.327E-02
   0.444E+00 -.103E+02 0.105E+02   -.318E-02 0.998E+01 -.106E+02   -.427E+00 0.240E+00 0.111E+00   -.957E-02 0.158E-01 -.971E-02
   0.285E+01 -.789E+01 0.853E+01   -.280E+01 0.778E+01 -.856E+01   -.461E-01 0.126E+00 0.353E-01   -.167E-02 0.843E-02 -.519E-02
   0.223E+01 -.130E+02 0.756E+01   -.258E+01 0.125E+02 -.719E+01   0.316E+00 0.519E+00 -.339E+00   0.398E-02 0.389E-01 -.185E-01
   0.171E+01 -.948E+01 0.805E+01   -.179E+01 0.916E+01 -.809E+01   0.860E-01 0.361E+00 0.433E-01   0.100E-02 0.983E-02 -.700E-02
   0.524E+01 -.197E+02 0.133E+02   -.694E+01 0.203E+02 -.134E+02   0.163E+01 -.595E+00 0.158E+00   0.139E-01 0.129E-01 -.941E-02
   0.306E+00 -.873E+01 0.952E+01   -.429E+00 0.922E+01 -.953E+01   0.133E+00 -.472E+00 0.987E-02   0.301E-02 0.351E-02 -.509E-02
   -.108E+01 -.101E+01 -.610E+03   0.300E+01 0.861E+00 0.592E+03   -.201E+01 0.155E+00 0.188E+02   -.307E-02 -.230E-02 -.149E+00
   -.634E+02 -.144E+03 0.107E+03   0.706E+02 0.160E+03 -.126E+03   -.774E+01 -.175E+02 0.204E+02   0.210E-03 -.352E-03 0.140E-01
   0.561E+02 0.126E+03 -.140E+03   -.718E+02 -.162E+03 0.181E+03   0.162E+02 0.366E+02 -.426E+02   -.902E-03 -.308E-02 0.135E-01
   -.722E+01 -.195E+02 0.486E+01   0.711E-13 0.227E-12 -.369E-12   0.722E+01 0.195E+02 -.378E+01   -.592E-02 -.476E-02 -.104E+01

 POSITION                                       TOTAL-FORCE (eV/Angst)
      7.43369     12.74379      7.25331        -0.016988      0.012511     -0.003213
      0.00110      1.41657      7.25535         0.025755     -0.018998      0.001079
      2.48002      0.02082      7.25273        -0.036747     -0.051128      0.001746
      2.48118      1.44314      7.26342         0.014054      0.036214     -0.004661
      4.95266      0.02624      7.25437         0.013919     -0.021080     -0.003116
      4.95454      1.44755      7.26500         0.018910      0.033595     -0.006002
      0.00118     12.74990      7.25545        -0.001293      0.006896      0.006357
      7.43310      1.42567      7.25423         0.001083     -0.023618      0.002794
      2.48509     12.72283      7.26358         0.001793     -0.029550     -0.005047
      9.91681      1.39576      7.25238        -0.014250      0.027670      0.000210
      4.95916     12.71923      7.26469        -0.010695     -0.055204     -0.010367
     12.38840      1.39340      7.25477         0.010660      0.020515     -0.004682
     13.62302      2.11287      7.25550        -0.030444     -0.031267      0.002284
     -1.24686      3.52849      7.26609         0.007377      0.030030     -0.005966
      1.23823      2.13949      7.26568        -0.001296     -0.009239     -0.000340
      1.23659      3.56244      7.28991         0.049642      0.036794      0.006449
      3.71926      2.17123      7.27932        -0.031972     -0.030990     -0.002022
      3.72121      3.59427      7.32393         0.020541      0.014083      0.003498
      6.19555      2.15006      7.26554        -0.008263     -0.032848     -0.006970
      6.19690      3.57604      7.28929        -0.011545      0.051952     -0.000717
      8.67987      2.11476      7.25239         0.022984     -0.008808      0.004439
      8.68366      3.53326      7.26000        -0.007269      0.043217     -0.006145
     11.15132      2.10609      7.25280        -0.000040      0.004307     -0.002409
     11.14957      3.53019      7.25449        -0.014395     -0.002516     -0.002019
     12.38157      4.24149      7.26233         0.012791     -0.009568     -0.000903
     -2.48984      5.65971      7.26911         0.024563     -0.010712     -0.002352
     -0.01507      4.24370      7.29130        -0.048267      0.011215     -0.005419
     -0.04054      5.66114      7.31948         0.032836     -0.019199      0.029376
      2.47526      4.30390      7.33657        -0.019749     -0.050045     -0.001942
      2.43042      5.71384      7.42862         0.156404      0.106069     -0.099918
      4.96249      4.32716      7.34311        -0.020444     -0.075200      0.010453
      5.01140      5.74772      7.44305        -0.149312      0.124041     -0.035708
      7.45188      4.24958      7.28256         0.018088     -0.035157     -0.011930
      7.47752      5.66524      7.30213        -0.033236     -0.007893      0.010993
      9.91699      4.24514      7.25799         0.002828     -0.001470     -0.002078
      9.92299      5.67025      7.26346        -0.001780      0.011466     -0.007187
     11.14797      6.37818      7.26304        -0.019229      0.003577     -0.003458
     -3.72296      7.79400      7.26396         0.005804     -0.020047     -0.005011
     -1.26858      6.37416      7.29464        -0.003409     -0.015694      0.001869
     -1.27067      7.79428      7.29397        -0.019710      0.005305      0.002623
      1.18088      6.36760      7.36940        -0.046116      0.089721      0.011693
      1.17929      7.80063      7.36748        -0.054722     -0.095878      0.012528
      6.27199      6.37899      7.36580         0.078147      0.052673      0.019426
      6.27488      7.81300      7.37432         0.111203     -0.083184      0.011176
      8.69663      6.38760      7.28050         0.001907      0.004927     -0.012117
      8.69488      7.80356      7.28074         0.053728     -0.027447     -0.008398
     -4.95048      8.51217      7.26532        -0.005419      0.006452     -0.006110
     -4.94376      9.92998      7.26015         0.006115      0.028969     -0.004090
     -2.49421      8.50851      7.26976         0.005582     -0.006544     -0.002992
     -2.48349      9.92902      7.26241         0.002101      0.020484      0.000350
     -0.04208      8.50654      7.31687         0.017044      0.001690      0.030597
     -0.01502      9.92248      7.29018        -0.024088      0.033059     -0.007332
      2.42889      8.45343      7.42497         0.175085     -0.118318     -0.079599
      2.47669      9.86121      7.33823         0.027361      0.053704     -0.011802
      5.02709      8.44138      7.45790        -0.212808     -0.129538     -0.016457
      4.96256      9.85346      7.34494        -0.000169      0.096957      0.013514
      7.47912      8.50586      7.30062        -0.071961      0.004306      0.023849
      7.45336      9.90998      7.28026         0.057036     -0.005170     -0.004730
     -6.18441     10.62408      7.26176        -0.008778     -0.037237     -0.008574
     -6.19101     12.04736      7.25325         0.029699      0.014073     -0.000667
     -3.71593     10.64159      7.25500         0.018974      0.021609      0.002357
     -3.71583     12.06418      7.25263         0.009858     -0.023180     -0.000117
     -1.24776     10.63795      7.26567         0.019240     -0.027264     -0.005042
     -1.24322     12.05681      7.25560         0.000581      0.034636      0.000105
      1.23765     10.60340      7.29066         0.006600     -0.021053     -0.008558
      1.24000     12.02587      7.26612         0.010360      0.021073     -0.001989
      3.72410     10.57506      7.32558        -0.029314      0.004232      0.008113
      3.72228     11.99828      7.27932         0.001993      0.048611     -0.004009
      6.20303     10.58599      7.28345        -0.062873     -0.009052      0.012764
      6.20308     12.01625      7.26240         0.008185      0.026546     -0.012520
      3.67993      7.08385      8.11128        -0.063522      0.003072      0.210895
      3.67993      7.08385     14.09128        -0.489950     -1.110374      1.272623
      3.35891      6.35801     14.93662         0.489224      1.108218     -1.279474
    total drift:                               -0.002059     -0.002042      0.035745

  FREE ENERGIE OF THE ION-ELECTRON SYSTEM (eV)
  free  energy   TOTEN  =      -668.61597407 eV

  energy  without entropy=     -668.61597407  energy(sigma->0) =     -668.61597407

 stress matrix after NEB project (eV)
     -3.01090     -0.67770      0.33508
     -0.67770     -2.38289      0.90542
      0.33508      0.90542     -4.25820
  FORCES: max atom, RMS     1.761971    0.300527
  FORCE total and by dimension    2.567703    1.279474
  Stress total and by dimension    5.971482    4.258196

 total charge

[...]

 magnetization (x)

# of ion       s       p       d       tot
    1       -0.000  -0.000   0.000  -0.000
    2        0.000   0.002   0.000   0.002
    3       -0.000   0.002   0.000   0.002
    4        0.000   0.009   0.000   0.009
    5       -0.000   0.000   0.000   0.000
    6        0.001   0.009   0.000   0.009
    7       -0.000   0.000   0.000   0.000
    8        0.000   0.002   0.000   0.003
    9        0.000   0.008   0.000   0.008
   10       -0.000   0.001   0.000   0.001
   11        0.000   0.009   0.000   0.009
   12       -0.000   0.002   0.000   0.002
   13        0.000   0.002   0.000   0.002
   14        0.000   0.004   0.000   0.005
   15        0.000   0.002   0.000   0.002
   16        0.001   0.007   0.000   0.008
   17       -0.001  -0.006   0.000  -0.007
   18        0.002   0.026   0.000   0.028
   19        0.000   0.003   0.000   0.003
   20        0.001   0.005   0.000   0.005
   21       -0.000   0.001   0.000   0.001
   22        0.000   0.007   0.000   0.007
   23        0.000   0.006   0.000   0.006
   24       -0.000  -0.001   0.000  -0.002
   25        0.000   0.008   0.000   0.008
   26        0.000   0.003   0.000   0.003
   27       -0.000  -0.001   0.000  -0.002
   28        0.000   0.002   0.000   0.002
   29       -0.001  -0.006   0.000  -0.007
   30        0.015   0.089   0.000   0.104
   31       -0.001  -0.006   0.000  -0.007
   32        0.014   0.080   0.000   0.094
   33       -0.000   0.000   0.000   0.000
   34        0.000   0.004   0.000   0.005
   35        0.000   0.009   0.000   0.009
   36        0.000   0.003   0.000   0.003
   37       -0.000   0.000   0.000   0.000
   38       -0.000  -0.000   0.000  -0.000
   39        0.000   0.008   0.000   0.009
   40        0.000   0.008   0.000   0.008
   41       -0.000   0.010   0.000   0.009
   42       -0.000   0.014   0.000   0.013
   43       -0.001   0.008   0.000   0.007
   44       -0.001   0.003   0.000   0.003
   45        0.000   0.004   0.000   0.005
   46        0.001   0.013   0.000   0.014
   47       -0.000   0.002   0.000   0.002
   48        0.001   0.015   0.000   0.015
   49       -0.000   0.001   0.000   0.001
   50        0.001   0.011   0.000   0.011
   51        0.000   0.001   0.000   0.002
   52       -0.000  -0.000   0.000  -0.000
   53        0.015   0.084   0.000   0.098
   54       -0.001  -0.007   0.000  -0.008
   55        0.014   0.079   0.000   0.093
   56       -0.001  -0.003   0.000  -0.004
   57        0.000   0.005   0.000   0.005
   58        0.000   0.005   0.000   0.005
   59        0.000   0.003   0.000   0.003
   60        0.000   0.003   0.000   0.003
   61       -0.000  -0.003   0.000  -0.003
   62        0.000   0.009   0.000   0.010
   63        0.000   0.005   0.000   0.005
   64        0.000   0.003   0.000   0.003
   65        0.001   0.005   0.000   0.006
   66        0.000   0.005   0.000   0.005
   67        0.001   0.024   0.000   0.025
   68       -0.001  -0.004   0.000  -0.004
   69        0.001   0.006   0.000   0.007
   70        0.000   0.003   0.000   0.003
   71       -0.033   0.010  -1.943  -1.966
   72        0.000  -0.000   0.000   0.000
   73        0.000   0.000   0.000   0.000
tot          0.032   0.611  -1.943  -1.300

 BZINTS: Fermi energy: -2.057030;303.000000 electrons
         Band energy:***********;  BLOECHL correction: -0.005067