 vasp.5.4.4.18Apr17-6-g9f103f2a35 (build Jan 14 2022 15:04:31) complex

 executed on             LinuxIFC date 2023.04.05  11:31:13

 INCAR:
 POTCAR:    PAW_PBE C 08Apr2002
 POTCAR:    PAW_PBE N 08Apr2002
 POTCAR:    PAW_PBE Ge_d 03Jul2007
 POTCAR:    PAW_PBE C 08Apr2002
   VRHFIN =C: s2p2

   TITEL  = PAW_PBE C 08Apr2002
   POMASS =   12.011; ZVAL   =    4.000    mass and valenz
   ENMAX  =  400.000; ENMIN  =  300.000 eV

   TITEL  = PAW_PBE N 08Apr2002
   POMASS =   14.001; ZVAL   =    5.000    mass and valenz
   ENMAX  =  400.000; ENMIN  =  300.000 eV

   TITEL  = PAW_PBE Ge_d 03Jul2007
   POMASS =   72.610; ZVAL   =   14.000    mass and valenz
   ENMAX  =  310.294; ENMIN  =  232.720 eV

  PAW_PBE C 08Apr2002                   :
  PAW_PBE N 08Apr2002                   :
  PAW_PBE Ge_d 03Jul2007                :

 POSCAR: POSCAR-c3n4
  positions in cartesian coordinates
 exchange correlation table for  LEXCH =        8
   RHO(1)=    0.500       N(1)  =     2000
   RHO(2)=  100.500       N(2)  =     4000

 VTST: version 3.2, (02/03/18)

 CHAIN: initializing optimizer

 OPT: Using VASP Dynamics algorithm
 CHAIN: Read ICHAIN            0

 POSCAR: POSCAR-c3n4
  positions in cartesian coordinates

 ion  position               nearest neighbor table
   1  0.106  0.214  0.426-  26 1.23  46 1.23  25 1.30
   2  0.288  0.399  0.433-  29 1.21  35 1.27  25 1.32
   3  0.104  0.392  0.427-  44 1.21  39 1.27  25 1.31
   4  0.447  0.064  0.506-  30 1.22  27 1.23  48 1.30
   5  0.453  0.401  0.413-  28 1.22  29 1.23  56 1.31
   6  0.112  0.053  0.449-  26 1.22  31 1.23  32 1.29   9 2.07
   7  0.096  0.712  0.484-  54 1.22  34 1.25  33 1.29  12 2.06
   8  0.284  0.890  0.501-  27 1.23  37 1.24  33 1.30
   9  0.109  0.895  0.498-  31 1.22  52 1.24  33 1.32   6 2.07
  10  0.448  0.548  0.502-  38 1.22  56 1.25  35 1.25  19 2.07
  11  0.445  0.885  0.489-  37 1.23  36 1.23  48 1.27
  12  0.087  0.542  0.481-  34 1.22  40 1.24  39 1.25   7 2.06
  13  0.616  0.223  0.473-  42 1.24  30 1.24  41 1.29
  14  0.780  0.390  0.400-  45 1.24  51 1.25  41 1.29  17 2.07  22 2.07
  15  0.610  0.394  0.435-  28 1.23  55 1.23  41 1.34
  16  0.940  0.052  0.461-  46 1.21  43 1.23  32 1.29  20 2.07
  17  0.941  0.387  0.394-  45 1.21  44 1.23  40 1.31  14 2.07
  18  0.623  0.066  0.512-  42 1.22  47 1.23  48 1.30
  19  0.613  0.711  0.531-  50 1.22  38 1.26  49 1.30  10 2.07
  20  0.790  0.897  0.523-  43 1.22  53 1.23  49 1.33  16 2.07
  21  0.609  0.892  0.521-  47 1.23  36 1.24  49 1.32
  22  0.938  0.563  0.421-  51 1.20  54 1.24  40 1.31  14 2.07
  23  0.954  0.902  0.535-  52 1.23  53 1.23  32 1.29
  24  0.621  0.555  0.490-  55 1.21  50 1.22  56 1.30
  25  0.167  0.335  0.425-   1 1.30   3 1.31   2 1.32
  26  0.165  0.161  0.421-   6 1.22   1 1.23
  27  0.336  0.002  0.522-   8 1.23   4 1.23
  28  0.512  0.352  0.392-   5 1.22  15 1.23
  29  0.345  0.361  0.390-   2 1.21   5 1.23
  30  0.506  0.177  0.493-   4 1.22  13 1.24
  31  0.159  0.988  0.447-   9 1.22   6 1.23
  32  0.002  0.002  0.483-  16 1.29  23 1.29   6 1.29
  33  0.165  0.831  0.500-   7 1.29   8 1.30   9 1.32
  34  0.134  0.645  0.518-  12 1.22   7 1.25
  35  0.334  0.491  0.492-  10 1.25   2 1.27  57 1.90
  36  0.503  0.831  0.490-  11 1.23  21 1.24
  37  0.333  0.829  0.479-  11 1.23   8 1.24
  38  0.499  0.648  0.545-  10 1.22  19 1.26
  39  0.142  0.484  0.485-  12 1.25   3 1.27  57 1.91
  40  0.988  0.496  0.436-  12 1.24  22 1.31  17 1.31
  41  0.667  0.330  0.429-  13 1.29  14 1.29  15 1.34
  42  0.680  0.178  0.495-  18 1.22  13 1.24
  43  0.827  0.986  0.468-  20 1.22  16 1.23
  44  0.011  0.348  0.379-   3 1.21  17 1.23
  45  0.830  0.330  0.380-  17 1.21  14 1.24
  46  0.993  0.161  0.435-  16 1.21   1 1.23
  47  0.669  0.005  0.539-  21 1.23  18 1.23
  48  0.505  0.004  0.498-  11 1.27  18 1.30   4 1.30
  49  0.668  0.832  0.534-  19 1.30  21 1.32  20 1.33
  50  0.675  0.666  0.512-  19 1.22  24 1.22
  51  0.832  0.507  0.396-  22 1.20  14 1.25
  52  0.016  0.853  0.549-  23 1.23   9 1.24
  53  0.849  0.860  0.566-  20 1.23  23 1.23
  54  0.004  0.677  0.435-   7 1.22  22 1.24
  55  0.668  0.491  0.484-  24 1.21  15 1.23
  56  0.506  0.502  0.467-  10 1.25  24 1.30   5 1.31
  57  0.287  0.593  0.558-  35 1.90  39 1.91

IMPORTANT INFORMATION: All symmetrisations will be switched off!
NOSYMM: (Re-)initialisation of all symmetry stuff for point group C_1.

 KPOINTS: K-Points

Automatic generation of k-mesh.
Space group operators:
 irot       det(A)        alpha          n_x          n_y          n_z        tau_x        tau_y        tau_z
    1     1.000000     0.000000     1.000000     0.000000     0.000000     0.000000     0.000000     0.000000

 Subroutine IBZKPT returns following result:

 Found      5 irreducible k-points:

 Following reciprocal coordinates:
            Coordinates               Weight
  0.000000  0.000000  0.000000      1.000000
  0.333333 -0.000000  0.000000      2.000000
 -0.000000  0.333333  0.000000      2.000000
  0.333333  0.333333  0.000000      2.000000
 -0.333333  0.333333  0.000000      2.000000

 Following cartesian coordinates:
            Coordinates               Weight
  0.000000  0.000000  0.000000      1.000000
  0.024277  0.014368  0.000000      2.000000
  0.000396  0.028736  0.000000      2.000000
  0.024673  0.043104  0.000000      2.000000
 -0.023881  0.014368  0.000000      2.000000

 TETIRR: Found     24 inequivalent tetrahedra from       54

 SYSTEM =  unknown system
 POSCAR =  POSCAR-c3n4

 Startparameter for this run:
   NWRITE =      2    write-flag & timer
   PREC   = normal    normal or accurate (medium, high low for compatibility)
   ISTART =      0    job   : 0-new  1-cont  2-samecut
   ICHARG =      2    charge: 1-file 2-atom 10-const
   ISPIN  =      2    spin polarized calculation?
   LNONCOLLINEAR =      F non collinear calculations
   LSORBIT =      F    spin-orbit coupling
   INIWAV =      1    electr: 0-lowe 1-rand  2-diag
   LASPH  =      F    aspherical Exc in radial PAW
   METAGGA=      F    non-selfconsistent MetaGGA calc.

 Electronic Relaxation 1
   ENCUT  =  440.0 eV  32.34 Ry    5.69 a.u.  21.78 21.38 23.60*2*pi/ulx,y,z
   ENINI  =  440.0     initial cutoff
   ENAUG  =  644.9 eV  augmentation charge cutoff
   NELM   =    100;   NELMIN=  2; NELMDL= -5     # of ELM steps
   EDIFF  = 0.1E-03   stopping-criterion for ELM
   LREAL  =      F    real-space projection
   NLSPLINE    = F    spline interpolate recip. space projectors
   LCOMPAT=      F    compatible to vasp.4.4
   GGA_COMPAT  = T    GGA compatible to vasp.4.4-vasp.4.6
   LMAXPAW     = -100 max onsite density
   LMAXMIX     =    2 max onsite mixed and CHGCAR
   VOSKOWN=      0    Vosko Wilk Nusair interpolation
   ROPT   =    0.00000   0.00000   0.00000
 Ionic relaxation
   EDIFFG = -.1E-01   stopping-criterion for IOM
   NSW    =      0    number of steps for IOM
   NBLOCK =      1;   KBLOCK =      1    inner block; outer block
   IBRION =     -1    ionic relax: 0-MD 1-quasi-New 2-CG
   NFREE  =      0    steps in history (QN), initial steepest desc. (CG)
   ISIF   =      2    stress and relaxation
   IWAVPR =     10    prediction:  0-non 1-charg 2-wave 3-comb
   ISYM   =      0    0-nonsym 1-usesym 2-fastsym
   LCORR  =      T    Harris-Foulkes like correction to forces

   POTIM  = 0.5000    time-step for ionic-motion
   TEIN   =    0.0    initial temperature
   TEBEG  =    0.0;   TEEND  =   0.0 temperature during run
   SMASS  =  -3.00    Nose mass-parameter (am)
   estimated Nose-frequenzy (Omega)   =  0.10E-29 period in steps =****** mass=  -0.371E-26a.u.
   SCALEE = 1.0000    scale energy and forces
   NPACO  =    256;   APACO  = 16.0  distance and # of slots for P.C.
   PSTRESS=    0.0 pullay stress

  Mass of Ions in am
   POMASS =  12.01 14.00 72.61
  Ionic Valenz
   ZVAL   =   4.00  5.00 14.00
  Atomic Wigner-Seitz radii
  virtual crystal weights
   VCA    =   1.00  1.00  1.00
   NELECT =     270.0000    total number of electrons
   NUPDOWN=      -1.0000    fix difference up-down

 DOS related values:
   EMIN   = -14.00;   EMAX   =  6.00  energy-range for DOS
   EFERMI =   0.00
   ISMEAR =    -5;   SIGMA  =   0.20  broadening in eV -4-tet -1-fermi 0-gaus

 Electronic relaxation 2 (details)
   IALGO  =     38    algorithm
   LDIAG  =      T    sub-space diagonalisation (order eigenvalues)
   LSUBROT=      F    optimize rotation matrix (better conditioning)
   TURBO    =      0    0=normal 1=particle mesh
   IRESTART =      0    0=no restart 2=restart with 2 vectors
   NREBOOT  =      0    no. of reboots
   NMIN     =      0    reboot dimension
   EREF     =   0.00    reference energy to select bands
   IMIX   =      4    mixing-type and parameters
     AMIX     =   0.25;   BMIX     =  0.00
     AMIX_MAG =   1.00;   BMIX_MAG =  0.00
     AMIN     =   0.10
     WC   =   100.;   INIMIX=   1;  MIXPRE=   1;  MAXMIX= -45

 Intra band minimization:
   WEIMIN = 0.0000     energy-eigenvalue tresh-hold
   EBREAK =  0.15E-06  absolut break condition
   DEPER  =   0.30     relativ break condition

   TIME   =   0.40     timestep for ELM

  volume/ion in A,a.u.               =      32.91       222.06
  Fermi-wavevector in a.u.,A,eV,Ry     =   0.857985  1.621356 10.015763  0.736138
  Thomas-Fermi vector in A             =   1.975121

 Write flags
   LWAVE        =      F    write WAVECAR
   LDOWNSAMPLE  =      F    k-point downsampling of WAVECAR
   LCHARG       =      F    write CHGCAR
   LVTOT        =      F    write LOCPOT, total local potential
   LVHAR        =      F    write LOCPOT, Hartree potential only
   LELF         =      F    write electronic localiz. function (ELF)
   LORBIT       =     11    0 simple, 1 ext, 2 COOP (PROOUT), +10 PAW based schemes

 Dipole corrections
   LMONO  =      F    monopole corrections only (constant potential shift)
   LDIPOL =      F    correct potential (dipole corrections)
   IDIPOL =      0    1-x, 2-y, 3-z, 4-all directions
   EPSILON=  1.0000000 bulk dielectric constant

 Exchange correlation treatment:
   GGA     =    --    GGA type
   VOSKOWN=      0    Vosko Wilk Nusair interpolation
   LHFCALC =     F    Hartree Fock is set to
   LHFONE  =     F    Hartree Fock one center treatment
   AEXX    =    0.0000 exact exchange contribution

 Linear response parameters
   LEPSILON=     F    determine dielectric tensor
   LRPA    =     F    only Hartree local field effects (RPA)
   LNABLA  =     F    use nabla operator in PAW spheres
   LVEL    =     F    velocity operator in full k-point grid
   LINTERFAST=   F  fast interpolation
   KINTER  =     0    interpolate to denser k-point grid
   CSHIFT  =0.1000    complex shift for real part using Kramers Kronig
   OMEGAMAX=  -1.0    maximum frequency
   DEG_THRESHOLD= 0.2000000E-02 threshold for treating states as degnerate
   RTIME   =   -0.100 relaxation time in fs
  (WPLASMAI=    0.000 imaginary part of plasma frequency in eV, 0.658/RTIME)
   DFIELD  = 0.0000000 0.0000000 0.0000000 field for delta impulse in time

 Orbital magnetization related:
   ORBITALMAG=     F  switch on orbital magnetization
   LCHIMAG   =     F  perturbation theory with respect to B field
   DQ        =  0.001000  dq finite difference perturbation B field
[...]
  Kinetic  4883.20600  4935.69587  5286.68273    10.08394   -31.19400   -13.84716
  Fock        0.00000     0.00000     0.00000     0.00000     0.00000     0.00000
  vdW        -1.95651    -2.06338    -0.11027    -0.01737    -0.04592     0.02367
  Total     354.85776   317.65032    67.44879    -6.55277    17.47370     9.72131
  in kB     303.12052   271.33782    57.61495    -5.59740    14.92609     8.30397

 VOLUME and BASIS-vectors are now :
  energy-cutoff  :      440.00
  volume of cell :     1875.64
      direct lattice vectors                 reciprocal lattice vectors
    12.735950296 -0.175481236  0.000000000     0.079163445  0.046852298  0.000000000
    -6.367975148 10.759575714  0.000000000     0.001291101  0.093704596  0.000000000
     0.000000000  0.000000000 13.800000000     0.000000000  0.000000000  0.072463768

  length of vectors
    12.737159165 12.502782772 13.800000000     0.091989069  0.093713491  0.072463768

 FORCES acting on ions
    electron-ion (+dipol)            ewald-force                    non-local-force                 convergence-correction
   -.614E+01 0.111E+02 0.131E+03   0.634E+01 -.122E+02 -.130E+03   -.246E+00 0.364E+01 -.168E+01   0.209E-01 0.163E-01 0.748E-02
   -.925E+00 0.321E+02 0.142E+03   0.123E+01 -.325E+02 -.142E+03   -.321E+01 0.662E+00 0.247E+00   0.206E-01 0.957E-02 0.873E-02
   -.141E+02 0.348E+02 0.141E+03   0.140E+02 -.351E+02 -.141E+03   0.290E+01 0.591E+00 0.611E+00   0.371E-01 0.518E-02 0.737E-02
   0.765E+02 -.625E+02 -.962E+02   -.799E+02 0.640E+02 0.971E+02   0.326E+01 -.175E+01 -.304E+00   0.124E-02 -.136E-01 0.317E-02
   -.157E+02 0.594E+02 0.222E+03   0.159E+02 -.623E+02 -.224E+03   -.405E+00 0.353E+01 0.204E+01   -.140E-01 0.230E-01 0.198E-01
   -.713E+02 -.204E+02 0.106E+03   0.746E+02 0.218E+02 -.108E+03   -.324E+01 -.163E+01 0.127E+01   -.946E-03 0.740E-02 0.436E-02
   0.451E+02 -.299E+02 -.371E+02   -.452E+02 0.294E+02 0.375E+02   0.636E+00 0.248E+01 0.864E+00   0.778E-02 0.118E-01 0.315E-02
   0.274E+02 -.183E+02 -.544E+02   -.265E+02 0.184E+02 0.542E+02   -.284E+01 -.191E+01 0.464E+00   0.120E-02 -.884E-02 0.716E-02
   -.785E+01 -.193E+01 -.662E+02   0.675E+01 0.180E+01 0.664E+02   0.320E+01 -.161E+01 0.315E+00   0.551E-02 -.956E-03 0.190E-02
   -.274E+02 0.197E+02 -.799E+02   0.256E+02 -.181E+02 0.814E+02   0.114E+01 -.191E+01 -.124E+01   0.601E-02 -.130E-01 -.833E-02
   -.380E+01 0.239E+02 0.524E+02   0.380E+01 -.279E+02 -.524E+02   0.830E-01 0.354E+01 -.648E+00   0.408E-02 -.133E-01 0.123E-01
   0.361E+02 0.179E+02 -.717E+02   -.343E+02 -.162E+02 0.734E+02   -.127E+01 -.233E+01 -.848E+00   0.204E-01 0.143E-01 0.822E-02
   -.423E+01 -.175E+02 -.168E+02   0.454E+01 0.160E+02 0.165E+02   -.148E+00 0.352E+01 -.685E+00   -.180E-01 0.177E-02 0.772E-03
   0.416E+02 0.316E+02 0.214E+03   -.409E+02 -.313E+02 -.214E+03   -.302E+01 -.136E+01 -.905E+00   -.207E-01 0.569E-02 0.811E-02
   -.134E+02 0.241E+02 0.965E+02   0.126E+02 -.244E+02 -.963E+02   0.320E+01 -.131E+01 -.507E+00   -.370E-01 0.150E-01 0.553E-02
   0.739E+02 -.191E+02 0.732E+02   -.773E+02 0.205E+02 -.741E+02   0.327E+01 -.172E+01 0.666E+00   0.702E-02 -.854E-02 0.720E-02
   0.329E+01 0.844E+02 0.238E+03   -.269E+01 -.873E+02 -.240E+03   -.704E-01 0.338E+01 0.193E+01   0.119E-01 0.100E-01 0.486E-02
   -.729E+02 -.660E+02 -.109E+03   0.764E+02 0.675E+02 0.110E+03   -.322E+01 -.169E+01 -.510E+00   -.770E-02 -.229E-01 0.516E-02
   -.379E+02 -.287E+02 -.157E+03   0.374E+02 0.288E+02 0.157E+03   -.345E+00 0.249E+01 0.929E+00   -.637E-02 -.121E-01 -.582E-02
   0.114E+02 -.357E+01 -.121E+03   -.106E+02 0.343E+01 0.121E+03   -.328E+01 -.152E+01 0.561E+00   -.967E-02 -.137E-01 0.156E-02
   -.303E+02 -.135E+02 -.989E+02   0.297E+02 0.136E+02 0.987E+02   0.283E+01 -.202E+01 0.992E+00   0.409E-02 -.227E-01 0.621E-02
   0.815E+02 -.783E+02 0.154E+03   -.840E+02 0.814E+02 -.154E+03   0.326E+01 -.233E+01 0.258E+00   0.596E-02 0.159E-01 0.836E-02
   -.119E+02 0.487E+02 -.209E+03   0.120E+02 -.525E+02 0.211E+03   -.607E-01 0.379E+01 -.164E+01   -.651E-02 0.246E-02 -.248E-02
   -.945E+02 -.286E+02 -.670E+02   0.975E+02 0.300E+02 0.685E+02   -.359E+01 -.115E+01 -.128E+01   -.348E-01 -.158E-01 -.649E-02
   -.159E+02 0.412E+02 0.188E+03   0.165E+02 -.422E+02 -.191E+03   -.348E+00 0.130E+01 0.290E+01   0.532E-01 0.217E-01 0.146E-01
   -.222E+03 -.377E+02 0.251E+03   0.259E+03 0.575E+02 -.266E+03   -.313E+02 -.165E+02 0.126E+02   0.763E-02 0.244E-01 0.709E-02
   0.179E+03 -.174E+03 -.266E+03   -.215E+03 0.193E+03 0.280E+03   0.308E+02 -.164E+02 -.107E+02   0.101E-02 -.131E-01 0.456E-02
   0.581E+01 0.195E+03 0.442E+03   -.276E+01 -.230E+03 -.470E+03   -.216E+01 0.290E+02 0.223E+02   -.297E-01 0.382E-01 0.271E-01
   -.402E+02 0.159E+03 0.467E+03   0.380E+02 -.191E+03 -.498E+03   0.205E+01 0.274E+02 0.252E+02   0.112E-01 0.355E-01 0.333E-01
   0.221E+03 -.113E+03 -.125E+03   -.256E+03 0.137E+03 0.126E+03   0.298E+02 -.195E+02 -.414E-01   -.179E-01 0.492E-02 0.915E-03
   -.167E+03 -.914E+02 0.284E+03   0.203E+03 0.103E+03 -.308E+03   -.303E+02 -.984E+01 0.196E+02   0.119E-02 -.769E-03 0.603E-02
   -.503E+01 -.215E+01 -.270E+02   0.535E+01 0.195E+01 0.284E+02   -.196E+00 0.920E-01 -.104E+01   -.120E-02 -.233E-02 0.483E-02
   0.177E+02 -.250E+02 -.108E+03   -.178E+02 0.259E+02 0.113E+03   0.239E+00 -.763E+00 -.399E+01   0.861E-02 -.115E-02 0.635E-02
   -.406E+01 -.689E+02 -.339E+03   0.297E+02 0.853E+02 0.368E+03   -.221E+02 -.137E+02 -.235E+02   0.284E-01 0.116E-01 0.715E-02
   0.110E+02 0.750E+02 -.853E+02   -.346E+02 -.707E+02 0.978E+02   0.191E+02 -.415E+01 -.105E+02   0.108E-01 0.125E-01 0.669E-02
   -.183E+02 0.131E+03 0.138E+03   0.217E+02 -.171E+03 -.151E+03   -.254E+01 0.339E+02 0.982E+01   -.323E-03 -.301E-01 0.152E-01
   -.597E+00 0.128E+03 0.155E+03   -.187E+01 -.168E+03 -.167E+03   0.172E+01 0.337E+02 0.990E+01   0.133E-01 -.190E-01 0.174E-01
   0.484E+02 -.674E+02 -.372E+03   -.794E+02 0.844E+02 0.395E+03   0.266E+02 -.142E+02 -.177E+02   -.165E-01 -.277E-01 -.126E-01
   -.371E+01 0.857E+02 -.120E+03   0.252E+02 -.821E+02 0.138E+03   -.175E+02 -.357E+01 -.142E+02   0.491E-01 0.293E-01 0.242E-01
   0.548E+02 0.201E+02 0.840E+02   -.602E+02 -.238E+02 -.840E+02   0.397E+01 0.282E+01 -.370E+00   0.154E-01 0.249E-01 0.133E-01
   0.162E+02 0.440E+02 0.167E+03   -.185E+02 -.459E+02 -.172E+03   0.197E+01 0.160E+01 0.402E+01   -.578E-01 0.170E-01 0.666E-02
   -.218E+03 -.119E+03 -.137E+03   0.254E+03 0.142E+03 0.139E+03   -.301E+02 -.186E+02 -.925E+00   -.490E-02 -.156E-01 0.113E-01
   0.171E+03 -.778E+02 0.220E+03   -.208E+03 0.889E+02 -.241E+03   0.313E+02 -.952E+01 0.166E+02   -.125E-02 -.246E-01 0.119E-01
   0.108E+02 0.184E+03 0.483E+03   -.569E+01 -.217E+03 -.512E+03   -.449E+01 0.283E+02 0.230E+02   0.364E-01 -.227E-02 -.327E-02
   0.299E+01 0.268E+03 0.402E+03   -.506E+01 -.309E+03 -.416E+03   0.107E+01 0.339E+02 0.108E+02   -.233E-02 -.112E-01 -.464E-02
   0.223E+03 -.391E+02 0.152E+03   -.261E+03 0.605E+02 -.160E+03   0.318E+02 -.176E+02 0.621E+01   0.200E-01 0.497E-03 0.844E-02
   -.163E+03 -.179E+03 -.327E+03   0.197E+03 0.198E+03 0.344E+03   -.294E+02 -.162E+02 -.138E+02   0.347E-03 -.314E-01 0.648E-02
   0.887E+00 -.365E+02 -.143E+02   -.768E+00 0.380E+02 0.115E+02   -.148E+00 -.112E+01 0.216E+01   -.220E-02 -.235E-01 0.961E-02
   -.171E+02 -.284E+02 -.211E+03   0.167E+02 0.309E+02 0.218E+03   0.158E+00 -.204E+01 -.535E+01   -.575E-02 -.180E-01 0.316E-03
   -.255E+03 -.748E+02 -.104E+03   0.292E+03 0.965E+02 0.105E+03   -.307E+02 -.183E+02 -.113E+01   -.298E-01 -.206E-01 -.540E-02
   0.202E+03 -.168E+03 0.341E+03   -.239E+03 0.187E+03 -.350E+03   0.308E+02 -.164E+02 0.661E+01   -.255E-01 0.181E-01 0.730E-02
   -.305E+00 0.170E+03 -.430E+03   0.571E+01 -.203E+03 0.458E+03   -.431E+01 0.286E+02 -.228E+02   0.241E-02 0.345E-02 -.166E-02
   -.392E+02 0.131E+03 -.483E+03   0.376E+02 -.162E+03 0.516E+03   0.128E+01 0.269E+02 -.262E+02   -.179E-01 -.322E-02 -.588E-02
   0.213E+03 -.146E+03 0.264E+03   -.243E+03 0.172E+03 -.279E+03   0.243E+02 -.225E+02 0.122E+02   0.790E-02 0.199E-01 0.883E-02
   -.191E+03 -.837E+02 -.207E+03   0.230E+03 0.941E+02 0.225E+03   -.321E+02 -.950E+01 -.141E+02   -.532E-01 -.419E-02 -.794E-02
   -.515E+02 0.233E+02 0.495E+02   0.554E+02 -.264E+02 -.526E+02   -.273E+01 0.216E+01 0.212E+01   -.149E-01 -.930E-02 -.212E-02
   0.517E+02 -.128E+03 -.111E+04   -.534E+02 0.148E+03 0.114E+04   0.136E+01 -.187E+02 -.239E+02   0.108E+00 0.255E-02 -.738E-01
   0.302E+01 -.383E+01 0.309E+01   -.782E-13 -.227E-12 -.114E-11   -.311E+01 0.383E+01 -.331E+01   0.920E-01 -.720E-03 0.251E+00

 POSITION                                       TOTAL-FORCE (eV/Angst)
     -0.01376      2.27883      5.88521        -0.020864      2.602464     -0.886273
      1.12296      4.23900      5.97758        -2.890013      0.287263     -0.001505
     -1.17290      4.19710      5.89657         2.806691      0.297326      0.301599
      5.29063      0.60838      6.97857        -0.108610     -0.287095      0.540203
      3.20901      4.23785      5.69285        -0.191083      0.657329     -0.462496
      1.09103      0.54779      6.19180         0.039398     -0.217474     -0.241113
     -3.30594      7.64294      6.67784         0.532821      2.055921      1.262311
     -2.04657      9.52681      6.91658        -1.967178     -1.812849      0.303195
     -4.30822      9.61465      6.87413         2.104569     -1.739674      0.497671
      2.21338      5.82056      6.92627        -0.664989     -0.382482      0.319295
      0.03626      9.44623      6.74779         0.090005     -0.468484     -0.621607
     -2.34525      5.81756      6.63326         0.557801     -0.640058      0.911334
      6.42764      2.29048      6.52332         0.141586      2.025502     -1.052508
      7.45557      4.05590      5.51838        -2.290934     -0.987927     -0.533098
      5.26270      4.13564      6.00937         2.359033     -1.609895     -0.368532
     11.63260      0.39783      6.35766        -0.137870     -0.358658     -0.254870
      9.51954      3.99381      5.43554         0.548635      0.448542     -0.656581
      7.51413      0.59634      7.06604         0.287812     -0.117893      0.493995
      3.28125      7.54443      7.33123        -0.919872      2.483249      1.234247
      4.34566      9.51567      7.21575        -2.411058     -1.672778      1.235384
      2.07853      9.49579      7.19431         2.250818     -1.894776      0.858088
      8.36628      5.89120      5.80303         0.810336      0.800428     -0.190430
      6.41256      9.53464      7.37837         0.003365     -0.008046      0.773205
      4.38089      5.85883      6.76007        -0.552083      0.269834      0.264097
     -0.01321      3.58007      5.86539         0.224512      0.398977     -0.467692
      1.07306      1.70306      5.80914         5.714917      3.362561     -2.758994
      4.27116     -0.03957      7.20578        -5.593495      3.211370      3.498830
      4.27320      3.70261      5.41493         0.875646     -5.344718     -5.286797
      2.09308      3.82098      5.37859        -0.239536     -4.392588     -5.792958
      5.31458      1.81286      6.80549        -5.626127      4.700614      0.853261
     -4.27135     10.60496      6.16386         5.633017      1.671555     -4.734019
      0.01548      0.01968      6.66322         0.121007     -0.112402      0.321597
     -3.19404      8.91050      6.90358         0.186018      0.118322      1.014566
     -2.40234      6.91929      7.14547         3.532271      2.719015      5.701349
      1.12245      5.22614      6.78340        -4.446585      0.192921      2.011577
      1.11430      8.85061      6.75818         0.895489     -6.419132     -2.750174
     -1.03915      8.86477      6.61536        -0.757807     -6.394038     -2.762825
      2.22887      6.88498      7.51871        -4.391469      2.823589      4.970162
     -1.27470      5.17896      6.69460         4.041024      0.021533      3.181462
      9.42992      5.16283      6.01663        -1.380832     -0.912937     -0.278276
      6.39711      3.43521      5.92458        -0.433312     -0.276630     -1.184003
      7.52301      1.79616      6.83428         5.759687      4.525149      0.545556
      4.25495     10.46620      6.45632        -5.882114      1.496867     -4.388572
     -2.07695      3.74348      5.22747         0.641274     -4.638743     -5.790652
      8.47446      3.40671      5.23749        -1.014485     -6.930745     -3.152866
     11.62095      1.55825      6.00481        -5.920177      3.757932     -1.442084
      8.48527     -0.06095      7.44484         5.097746      3.281253      4.065501
      6.40500     -0.04681      6.87667        -0.033140      0.412237     -0.673851
      3.21157      8.83767      7.37195        -0.278453      0.356822      1.392613
      4.36343      7.04214      7.07201         6.226638      3.440160      0.158079
      7.37131      5.30552      5.46130        -6.610907      2.322022     -3.235162
     -5.23006      9.17508      7.57175         1.106759     -5.203992      5.168740
      5.34224      9.09952      7.81149        -0.359144     -4.191027      6.119479
     -4.25878      7.28633      5.99686        -4.956771      4.304368     -3.265381
      5.37320      5.16880      6.67673         6.628315      0.903309      3.479926
      3.24458      5.31038      6.44683         1.057856     -0.903966     -1.013379
     -0.12323      6.32884      7.69757        -0.196134      1.970574      2.769373
    total drift:                                0.005276     -0.002764      0.031120

  FREE ENERGIE OF THE ION-ELECTRON SYSTEM (eV)
  free  energy   TOTEN  =      -451.78881788 eV

  energy  without entropy=     -451.78881788  energy(sigma->0) =     -451.78881788

 stress matrix after NEB project (eV)
    354.85776     -6.55277      9.72131
     -6.55277    317.65032     17.47370
      9.72131     17.47370     67.44879
  FORCES: max atom, RMS     7.717652    4.893427
  FORCE total and by dimension   36.944565    6.930745
  Stress total and by dimension  481.934269  354.857759

 total charge

[...]

 magnetization (x)

# of ion       s       p       d       tot
    1       -0.000  -0.000   0.000  -0.000
    2        0.000   0.000   0.000   0.000
    3       -0.000  -0.000   0.000  -0.000
    4       -0.000  -0.000   0.000  -0.000
    5        0.000   0.000   0.000   0.000
    6       -0.000  -0.000   0.000  -0.000
    7       -0.000  -0.000   0.000  -0.000
    8       -0.000  -0.000   0.000  -0.000
    9       -0.000  -0.000   0.000  -0.000
   10       -0.000  -0.000   0.000  -0.000
   11       -0.000   0.000   0.000   0.000
   12       -0.000   0.000   0.000   0.000
   13       -0.000  -0.000   0.000  -0.000
   14       -0.000  -0.000   0.000  -0.000
   15        0.000   0.000   0.000   0.000
   16       -0.000   0.000   0.000   0.000
   17       -0.000  -0.000   0.000  -0.000
   18       -0.000  -0.000   0.000  -0.000
   19        0.000   0.000   0.000   0.000
   20       -0.000  -0.000   0.000  -0.000
   21       -0.000   0.000   0.000   0.000
   22       -0.000  -0.000   0.000  -0.000
   23       -0.000  -0.000   0.000  -0.000
   24        0.000   0.000   0.000   0.000
   25        0.000   0.000   0.000   0.000
   26       -0.000   0.000   0.000   0.000
   27        0.000  -0.000   0.000  -0.000
   28       -0.000  -0.000   0.000  -0.000
   29       -0.000  -0.000   0.000  -0.000
   30        0.000  -0.000   0.000  -0.000
   31        0.000   0.000   0.000   0.000
   32        0.000   0.000   0.000   0.000
   33        0.000   0.000   0.000   0.000
   34       -0.000  -0.000   0.000  -0.000
   35        0.000   0.000   0.000   0.000
   36       -0.000  -0.000   0.000  -0.000
   37       -0.000  -0.000   0.000  -0.000
   38        0.000   0.000   0.000   0.000
   39        0.000   0.000   0.000   0.000
   40       -0.000  -0.000   0.000  -0.000
   41        0.000   0.000   0.000   0.000
   42        0.000   0.000   0.000   0.000
   43        0.000   0.000   0.000   0.000
   44        0.000   0.000   0.000   0.000
   45        0.000   0.000   0.000   0.000
   46       -0.000   0.000   0.000   0.000
   47        0.000   0.000   0.000   0.000
   48        0.000  -0.000   0.000  -0.000
   49        0.000   0.000   0.000   0.000
   50       -0.000  -0.000   0.000  -0.000
   51        0.000   0.000   0.000   0.000
   52        0.000  -0.000   0.000  -0.000
   53        0.000   0.000   0.000   0.000
   54        0.000   0.000   0.000   0.000
   55        0.000   0.000   0.000   0.000
   56        0.000   0.000   0.000   0.000
   57       -0.000   0.000   0.000   0.000
tot          0.000   0.000   0.000   0.000

 BZINTS: Fermi energy: -1.080520;270.000000 electrons
         Band energy:***********;  BLOECHL correction:  0.000000